LAMMPS (24 Apr 2013)
WARNING: OMP_NUM_THREADS environment is not set. (../comm.cpp:100)
  using 1 OpenMP thread(s) per MPI task
# ----------------- Init Section -----------------
units           real
atom_style      full
boundary	p p p
pair_style	lj/cut/coul/long 9.8 9.8
pair_modify     mix arithmetic
kspace_style	pppm 1.0e-4
bond_style      harmonic
angle_style     harmonic
dihedral_style  none
improper_style  none

# ----------------- Atom Definition Section -----------------
read_data "cg25.data"
  2 = max bonds/atom
  1 = max angles/atom
  orthogonal box = (0 0 0) to (85 37 37)
  1 by 1 by 1 MPI processor grid
  7168 atoms
  4786 bonds
  2381 angles
  2 = max # of 1-2 neighbors
  2 = max # of 1-3 neighbors
  4 = max # of 1-4 neighbors
  6 = max # of special neighbors

# ----------------- Settings Section -----------------------
# Bond parameters
#           bond-type   k      	r0
# Water
bond_coeff   	1  	200.0   1.0
angle_coeff  	1 	200.0   109.47
# CG25
bond_coeff  	2       72.54   2.5

# LJ Interactions
#             atom1   atom2	epsilon	sigma
pair_coeff   	1 	1 	0.1553  3.166
pair_coeff   	1 	2 	0.0     0.0
pair_coeff 	1 	3 	0.1777 	3.783
pair_coeff   	2 	2 	0.0     0.0
pair_coeff   	2 	3 	0.0     0.0
pair_coeff 	3 	3 	0.2032	4.4

group spc type	1 2
7143 atoms in group spc

# ----------------- Minimize -----------------
# command  	etol    ftol   maxiter  maxeval
#minimize	1.0e-6	1.0e-8	200	2000

# ----------------- Run Section -----------------
# Write initial structure out
dump            icrd all custom 5 system.lammpstrj id mol type x y z ix iy iz
dump_modify     icrd sort id
run             1
WARNING: No fixes defined, atoms won't move (../verlet.cpp:54)
PPPM initialization ...
  G vector (1/distance) = 0.263311
  grid = 36 20 20
  stencil order = 5
  estimated absolute RMS force accuracy = 0.0319958
  estimated relative force accuracy = 9.63544e-05
  using double precision FFTs
  3d grid and FFT values/proc = 29889 14400
Memory usage per processor = 21.5284 Mbytes
Step Temp E_pair E_mol TotEng Press 
       0            0    -14358.79    219980.46    205621.67   -2785.7071 
       1            0    -14358.79    219980.46    205621.67   -2785.7071 
Loop time of 0.049649 on 1 procs (1 MPI x 1 OpenMP) for 1 steps with 7168 atoms

Pair  time (%) = 0.0434911 (87.5972)
Bond  time (%) = 0.00044179 (0.889826)
Kspce time (%) = 0.00549722 (11.0722)
Neigh time (%) = 0 (0)
Comm  time (%) = 0.000133991 (0.269877)
Outpt time (%) = 4.91142e-05 (0.0989229)
Other time (%) = 3.57628e-05 (0.0720312)

FFT time (% of Kspce) = 0.00114832 (20.8891)
FFT Gflps 3d (1d only) = 2.40142 4.80607

Nlocal:    7168 ave 7168 max 7168 min
Histogram: 1 0 0 0 0 0 0 0 0 0
Nghost:    18121 ave 18121 max 18121 min
Histogram: 1 0 0 0 0 0 0 0 0 0
Neighs:    1.5451e+06 ave 1.5451e+06 max 1.5451e+06 min
Histogram: 1 0 0 0 0 0 0 0 0 0

Total # of neighbors = 1545104
Ave neighs/atom = 215.556
Ave special neighs/atom = 2.01228
Neighbor list builds = 0
Dangerous builds = 0

# Reset the timestep
undump          icrd
reset_timestep  0

# Timestep and Neighbour searching
timestep	1.0
neighbor        2.0 bin
neigh_modify	delay 0 every 1 check yes

# Fixes
fix 		shake spc shake 0.0001 10 0 b 1 a 1
  0 = # of size 2 clusters
  0 = # of size 3 clusters
  0 = # of size 4 clusters
  2381 = # of frozen angles
fix   		npt all npt temp 300.0 300.0 100.0 iso 1.0 1.0 10000.0

# Initial velocity
#velocity	all create 300 432567 dist uniform

# Write out thermodynamic information
thermo_style    custom step temp press vol pe ke evdwl ecoul epair
thermo	        250

# Write out trajectory
dump            cxtc all xtc 50 traj-0.xtc

# Write out velocity
#dump 		1 all custom 1 vel_npt.txt vx vy vz

# Checkpoint files
restart         5000 state_cpt-*.data

# Final run command
run             3500
PPPM initialization ...
  G vector (1/distance) = 0.263311
  grid = 36 20 20
  stencil order = 5
  estimated absolute RMS force accuracy = 0.0319958
  estimated relative force accuracy = 9.63544e-05
  using double precision FFTs
  3d grid and FFT values/proc = 29889 14400
Memory usage per processor = 21.9905 Mbytes
Step Temp Press Volume PotEng KinEng E_vdwl E_coul E_pair 
       0            0   -166301.11       116365    -14358.79            0   -1669.4376    104984.27    -14358.79 
     250     528.0654   -968.08222    116231.04   -12342.788    7533.4638    747.27281    105052.07   -12343.788 
     500    418.11818   -596.81682    115972.08   -16389.451    5964.9396    2084.6644     99772.09   -16390.142 
     750    341.88024   -941.30279    115666.43   -18838.857    4877.3172     2807.639    96615.683   -18839.118 
    1000    307.29702   -1181.5425    115285.46   -20404.204    4383.9476    3251.4405    94630.567   -20405.945 
    1250    296.59394   -896.92301    114838.29   -21250.227    4231.2557    3628.0611    93431.329   -21250.925 
    1500    297.81273   -969.78593    114355.65   -21510.471    4248.6431    3644.9456    93161.442   -21511.111 
    1750     304.9562   -875.45697    113865.67   -21548.802     4350.553    3637.0097    93130.612   -21549.763 
    2000    292.72811   -912.20364    113396.76   -21638.075    4176.1052    3653.0194     93014.94   -21639.283 
    2250    299.84524   -582.05557    112955.94   -21751.545    4277.6392    3799.7481    92760.203   -21752.342 
    2500    298.59278   -741.31784    112557.57   -21936.122    4259.7714    3778.1603    92606.004   -21936.815 
    2750    300.85914   -680.88114    112182.95   -22025.252    4292.1037    3818.9298    92478.268   -22026.522 
    3000    293.35656   -387.95173    111836.83   -22029.683    4185.0707    3951.2466    92342.579   -22031.167 
    3250    304.66227   -570.91604    111513.49   -22202.239    4346.3598    3853.8981    92271.007   -22203.304 
    3500    295.35163   -560.31198    111204.97   -22230.045    4213.5327    3866.3269    92228.604   -22231.072 
Loop time of 174.384 on 1 procs (1 MPI x 1 OpenMP) for 3500 steps with 7168 atoms

Pair  time (%) = 121.698 (69.7871)
Bond  time (%) = 0.0128112 (0.00734654)
Kspce time (%) = 19.7376 (11.3185)
Neigh time (%) = 10.117 (5.80156)
Comm  time (%) = 0.551212 (0.316091)
Outpt time (%) = 0.0516689 (0.0296294)
Other time (%) = 22.2161 (12.7398)

FFT time (% of Kspce) = 4.03964 (20.4667)
FFT Gflps 3d (1d only) = 2.38922 4.8286

Nlocal:    7168 ave 7168 max 7168 min
Histogram: 1 0 0 0 0 0 0 0 0 0
Nghost:    16249 ave 16249 max 16249 min
Histogram: 1 0 0 0 0 0 0 0 0 0
Neighs:    1.73236e+06 ave 1.73236e+06 max 1.73236e+06 min
Histogram: 1 0 0 0 0 0 0 0 0 0

Total # of neighbors = 1732359
Ave neighs/atom = 241.68
Ave special neighs/atom = 2.01228
Neighbor list builds = 196
Dangerous builds = 0
write_restart   confout-0.data
PPPM initialization ...
  G vector (1/distance) = 0.264664
  grid = 36 20 20
  stencil order = 5
  estimated absolute RMS force accuracy = 0.0305652
  estimated relative force accuracy = 9.20461e-05
  using double precision FFTs
  3d grid and FFT values/proc = 29889 14400
