LAMMPS (24 Apr 2013)
WARNING: OMP_NUM_THREADS environment is not set. (../comm.cpp:100)
  using 1 OpenMP thread(s) per MPI task
# ----------------- Init Section -------------------------------------------------------
units           real
atom_style      full
boundary	p p p
pair_style	lj/cut/coul/long 9.8 9.8
pair_modify     mix arithmetic
kspace_style	pppm 1.0e-4
bond_style      harmonic
angle_style     harmonic
dihedral_style  none
improper_style  none

# ----------------- Atom Definition Section --------------------------------------------
read_data "cg25.data"
  2 = max bonds/atom
  1 = max angles/atom
  orthogonal box = (0 0 0) to (88 42 42)
  1 by 1 by 1 MPI processor grid
  10825 atoms
  7224 bonds
  3600 angles
  2 = max # of 1-2 neighbors
  2 = max # of 1-3 neighbors
  4 = max # of 1-4 neighbors
  6 = max # of special neighbors

# ----------------- Settings Section ---------------------------------------------------
# Bond parameters
#           bond-type   k      	r0
# Water
bond_coeff   	1  	200.0   1.0
angle_coeff  	1 	200.0   109.47
# CG25
bond_coeff  	2       72.54   2.5

# LJ Interactions
#             atom1   atom2	epsilon	sigma
pair_coeff   	1 	1 	0.1553  3.166
pair_coeff   	1 	2 	0.0     0.0
pair_coeff 	1 	3 	0.1777 	3.783
pair_coeff   	2 	2 	0.0     0.0
pair_coeff   	2 	3 	0.0     0.0
pair_coeff 	3 	3 	0.2032	4.4

group spc type	1 2
10800 atoms in group spc

# ----------------- Minimize -----------------------------------------------------------
# command  	etol    ftol   maxiter  maxeval
minimize	1.0e-4	1.0e-6	100	1000
WARNING: Resetting reneighboring criteria during minimization (../min.cpp:173)
PPPM initialization ...
  G vector (1/distance) = 0.268624
  grid = 40 24 24
  stencil order = 5
  estimated absolute RMS force accuracy = 0.0259867
  estimated relative force accuracy = 7.82581e-05
  using double precision FFTs
  3d grid and FFT values/proc = 43245 23040
Memory usage per processor = 34.0901 Mbytes
Step Temp E_pair E_mol TotEng Press 
       0            0   -13914.551    332603.81    318689.26     18535.81 
     100            0   -25718.537    1220.2897   -24498.247   -9360.2016 
Loop time of 14.6576 on 1 procs (1 MPI x 1 OpenMP) for 100 steps with 10825 atoms

Minimization stats:
  Stopping criterion = max iterations
  Energy initial, next-to-last, final = 
         318689.259442     -24065.0433755     -24498.2474367
  Force two-norm initial, final = 32644.5 421.195
  Force max component initial, final = 3297.29 35.6384
  Final line search alpha, max atom move = 0.00108321 0.038604
  Iterations, force evaluations = 100 162

Pair  time (%) = 12.6053 (85.9984)
Bond  time (%) = 0.0959451 (0.654576)
Kspce time (%) = 1.5505 (10.5782)
Neigh time (%) = 0.322263 (2.19861)
Comm  time (%) = 0.03125 (0.2132)
Outpt time (%) = 8.01086e-05 (0.000546533)
Other time (%) = 0.052263 (0.356559)

FFT time (% of Kspce) = 0.281574 (18.1601)
FFT Gflps 3d (1d only) = 1.64388 2.72193

Nlocal:    10825 ave 10825 max 10825 min
Histogram: 1 0 0 0 0 0 0 0 0 0
Nghost:    20913 ave 20913 max 20913 min
Histogram: 1 0 0 0 0 0 0 0 0 0
Neighs:    2.63565e+06 ave 2.63565e+06 max 2.63565e+06 min
Histogram: 1 0 0 0 0 0 0 0 0 0

Total # of neighbors = 2635648
Ave neighs/atom = 243.478
Ave special neighs/atom = 2.00813
Neighbor list builds = 4
Dangerous builds = 0

# ----------------- Run it --------------------------------------------------------------
# Write initial structure out
dump            icrd all custom 5 system.lammpstrj id mol type x y z ix iy iz
dump_modify     icrd sort id
run             1
WARNING: No fixes defined, atoms won't move (../verlet.cpp:54)
PPPM initialization ...
  G vector (1/distance) = 0.268624
  grid = 40 24 24
  stencil order = 5
  estimated absolute RMS force accuracy = 0.0259867
  estimated relative force accuracy = 7.82581e-05
  using double precision FFTs
  3d grid and FFT values/proc = 43245 23040
Memory usage per processor = 33.5267 Mbytes
Step Temp E_pair E_mol TotEng Press 
     100            0   -25718.537    1220.2897   -24498.247   -9360.2016 
     101            0   -25718.537    1220.2897   -24498.247   -9360.2016 
Loop time of 0.0860109 on 1 procs (1 MPI x 1 OpenMP) for 1 steps with 10825 atoms

Pair  time (%) = 0.0752759 (87.519)
Bond  time (%) = 0.000710964 (0.826597)
Kspce time (%) = 0.00971699 (11.2974)
Neigh time (%) = 0 (0)
Comm  time (%) = 0.000184059 (0.213995)
Outpt time (%) = 7.00951e-05 (0.0814955)
Other time (%) = 5.29289e-05 (0.0615374)

FFT time (% of Kspce) = 0.00280874 (28.9055)
FFT Gflps 3d (1d only) = 1.64797 2.73096

Nlocal:    10825 ave 10825 max 10825 min
Histogram: 1 0 0 0 0 0 0 0 0 0
Nghost:    20963 ave 20963 max 20963 min
Histogram: 1 0 0 0 0 0 0 0 0 0
Neighs:    2.62911e+06 ave 2.62911e+06 max 2.62911e+06 min
Histogram: 1 0 0 0 0 0 0 0 0 0

Total # of neighbors = 2629111
Ave neighs/atom = 242.874
Ave special neighs/atom = 2.00813
Neighbor list builds = 0
Dangerous builds = 0

# Reset the timestep
undump          icrd
reset_timestep  0

# Timestep and Neighbour searching
timestep	2.0
neighbor        2.0 bin
neigh_modify	delay 4 every 1 check yes

# Fixes
fix 		shake spc shake 0.0001 10 0 b 1 a 1
  0 = # of size 2 clusters
  0 = # of size 3 clusters
  0 = # of size 4 clusters
  3600 = # of frozen angles
fix   		npt all npt temp 300.0 300.0 100.0 iso 1.0 1.0 1000.0

# Initial velocity
#velocity	all create 300 432567 dist uniform

# Write out thermodynamic information
thermo_style    custom step temp press vol pe ke evdwl ecoul epair
thermo	        250

# Write out trajectory
dump            cxtc all xtc 250 traj-0.xtc

# Write out velocity
#dump 		1 all custom 1 vel_npt.txt vx vy vz

# Final run command
run             65250
PPPM initialization ...
  G vector (1/distance) = 0.268624
  grid = 40 24 24
  stencil order = 5
  estimated absolute RMS force accuracy = 0.0259867
  estimated relative force accuracy = 7.82581e-05
  using double precision FFTs
  3d grid and FFT values/proc = 43245 23040
Memory usage per processor = 34.2169 Mbytes
Step Temp Press Volume PotEng KinEng E_vdwl E_coul E_pair 
       0            0   -35327.935       155232   -25717.467            0   -1194.2059    157567.19   -25718.537 
     250    312.00712   -243.91437     148154.4   -32652.318    6718.5654    5457.8518    144405.15   -32653.085 
     500    300.86092   -212.39132    146441.23   -33474.976      6478.55    5832.8649    143217.89   -33476.348 
     750    297.20463    -758.2127    142211.99   -33791.612    6399.8177    5669.3655    143071.25   -33793.072 
    1000    298.21547   -465.33882    137447.84   -33996.563    6421.5846    5849.9226    142703.27   -33998.258 
    1250    301.12015   -705.44713    133077.41   -34181.557    6484.1321    5729.1219    142651.32   -34182.985 
    1500    298.92734   -471.66718    129129.39   -34603.733    6436.9135    5923.9335     142041.2   -34607.085 
    1750    295.54333   -283.97822    125884.34    -34734.33    6364.0443     6019.925    141819.01   -34737.837 
    2000       299.01   -504.26902     122847.5    -34931.18    6438.6936    5887.7981    141765.92    -34933.94 
    2250    299.43209   -331.73092    120174.63   -34958.048    6447.7824    5924.9836    141690.37   -34961.884 
    2500    301.45349   -284.81872    117696.08   -35282.078    6491.3101     5978.776     141319.9   -35284.681 
    2750    298.35101     -47.1297     117034.7   -35227.877    6424.5031    6101.2453    141257.65   -35229.868 
    3000     305.9569    -206.8739    115661.56   -35420.132    6588.2836    6017.3678    141165.65   -35424.622 
    3250    305.40124   -238.79461    114674.84   -35372.956    6576.3185    5969.6151    141258.57   -35377.844 
    3500    301.00144   -36.247547    114504.86   -35470.181    6481.5758    6109.3569    141009.91   -35472.268 
    3750    297.50742   -10.499856    114293.13   -35412.248     6406.338    6087.9949       141093   -35414.506 
    4000    297.74518    172.10495    113066.42   -35405.352    6411.4576     6105.591    141091.23   -35408.863 
    4250    303.55544   -150.78997    113115.92   -35355.773    6536.5722    5915.4861    141325.33   -35361.818 
    4500     291.8192   -83.378267    113277.75   -35467.456    6283.8513     6028.646    141105.26   -35472.798 
    4750    302.92946    -4.454854    112640.94   -35430.048    6523.0927    6011.5301    141160.73   -35433.688 
    5000    303.66717     68.06678     112604.4   -35400.958     6538.978    6013.1547    141190.49   -35404.334 
    5250    299.60659    140.44049    112929.45   -35448.571    6451.5402    6075.3226    141070.46   -35452.054 
    5500    298.81746   -166.91759    112833.29   -35488.273    6434.5475    5982.3648    141119.98   -35493.386 
    5750    293.25607   -7.4799552    112402.72   -35468.776    6314.7921    6037.5617    141089.05   -35472.956 
    6000    297.49946   -366.94238    112320.13   -35635.843    6406.1665    5906.3534    141054.94   -35639.791 
    6250    303.50896    19.480017    112285.44   -35544.436    6535.5713    6043.8743    141011.94   -35549.972 
    6500    299.72237   -13.981562    112453.75   -35638.203    6454.0332     6094.414    140865.27   -35642.605 
    6750     298.8551   -66.220658     112050.1   -35459.649    6435.3579    5962.0355    141169.14   -35465.446 
    7000    302.54948    161.62383    112356.87   -35582.304    6514.9105    6135.9305    140881.94   -35586.323 
    7250    297.85085   -91.941485    112702.98   -35484.103    6413.7331    5997.7714    141120.08   -35488.866 
    7500    302.70374    129.65829    112076.59    -35722.01    6518.2321    6154.6869    140723.32   -35728.852 
    7750     302.8494   -362.14315    113601.83     -35339.3    6521.3688    5849.7825    141403.74     -35344.4 
    8000    298.63702   -111.12424    113369.14   -35329.177     6430.662     5985.574    141280.87   -35335.588 
    8250    302.71606    315.27502    112856.53   -35565.619    6518.4975    6220.4822       140812   -35570.941 
    8500    298.24146   -236.78989    113387.24   -35558.047    6422.1443    5975.1276    141063.29   -35564.161 
    8750    298.71057   -84.043693    113230.06   -35578.927    6432.2458    6081.6526    140930.74   -35583.349 
    9000    300.00608    147.39946    112514.33   -35549.501    6460.1424    6120.9339    140928.45   -35554.978 
    9250    294.51714    117.91302    112636.65   -35426.859     6341.947    6096.6473    141066.64   -35434.202 
    9500    296.98449    312.56062    112172.94   -35553.192    6395.0775    6195.8709    140837.36   -35557.822 
    9750    302.75657   -201.38631     112586.9   -35456.923    6519.3699    5917.9682    141206.05   -35466.377 
   10000    299.93852   -494.92081    112227.17   -35486.846    6458.6877    5788.7791    141308.01   -35494.798 
   10250    303.58899    53.707393    111347.36   -35562.594    6537.2945    6002.1181    141025.27    -35569.17 
   10500    300.38073   -114.55122    112551.23    -35525.94    6468.2099     5987.541    141079.64   -35532.554 
   10750    298.22977    53.254814     112153.2   -35610.573    6421.8926    6099.6006    140884.49   -35616.402 
   11000    297.39655   -310.64051     112873.5   -35657.289    6403.9506    5953.5044    140979.95   -35663.254 
   11250    297.96425    292.19846    112368.59   -35451.857     6416.175    6194.2909    140953.14    -35457.27 
   11500    302.58186    196.53072     112837.8   -35341.731    6515.6076    6090.6751    141159.06   -35347.437 
   11750     298.7698     143.7936    112758.27   -35466.609    6433.5213    6094.9747    141030.89   -35472.186 
   12000    302.18029   -89.843931    113023.69   -35407.216    6506.9605    5981.3993    141208.78   -35412.506 
   12250    299.34287    126.91417    112702.31   -35513.457    6445.8613    6162.5641    140924.23   -35521.194 
   12500    297.34433    298.70865    112296.34   -35418.002    6402.8261    6141.1223    141039.57   -35421.826 
   12750    300.44309    -97.03217    112687.94    -35362.89    6469.5528    5957.4262    141275.83   -35368.294 
   13000    297.33017    286.16892     112010.2   -35493.447     6402.521    6140.7427    140959.63    -35502.64 
   13250    300.92713   -260.66457    113210.45     -35453.8    6479.9757    5934.9988     141204.4   -35460.866 
   13500    304.35514   -56.568319    112758.08   -35586.042    6553.7924    6038.6085    140978.43   -35592.606 
   13750     309.5366   -73.626502    111992.08   -35561.036    6665.3666     5955.232    141079.91   -35566.566 
   14000    300.06659   -399.36121    112502.28   -35415.882    6461.4455    5794.6858    141377.39    -35423.04 
   14250    299.56219    67.328904    111462.11   -35480.383    6450.5839     6021.653    141096.33    -35489.53 
   14500    299.71934   -48.685332    112265.02   -35516.994    6453.9681    5955.2157       141117   -35524.837 
   14750    303.88764   -27.793023    112999.11   -35326.355    6543.7256    5967.7332    141289.16   -35334.051 
   15000    304.09592   -199.74938    113079.38   -35531.328    6548.2106    5937.9774    141122.79   -35539.461 
   15250    299.58125    157.95253    112668.14   -35448.644    6450.9944    6147.0554    140997.99   -35460.723 
   15500      301.287   -11.050131    112137.94   -35367.931    6487.7249    5962.3307    141258.26   -35378.363 
   15750    302.24178    148.86283    112871.71   -35490.246    6508.2846    6129.3049    140967.29   -35501.436 
   16000    300.94266    63.855338     113386.9   -35399.345    6480.3101    6102.4161    141090.38   -35405.121 
   16250    295.36751    61.138995    113323.71   -35488.621    6360.2583     6097.799     141006.1   -35495.705 
   16500    294.08394    39.827282    113057.21   -35203.739    6332.6187    5992.9147    141389.55   -35211.214 
   16750    297.99682    27.845439    112711.62   -35354.037    6416.8763     5961.274    141282.25   -35358.722 
   17000    295.67649   -243.76901     113447.9   -35288.897    6366.9118     5872.795    141430.34   -35295.891 
   17250    302.19744   -136.85274    112779.37    -35498.97    6507.3298    5967.5796     141134.9   -35503.357 
   17500    298.44349    211.13497    111291.65    -35572.22    6426.4946    6095.2043    140937.08   -35578.723 
   17750    307.38315   -155.26257    112830.49   -35381.726    6618.9956    5951.0901    141260.13   -35390.305 
   18000    298.83855    191.01958     112650.1   -35479.556    6435.0017    6130.7753    140981.86   -35485.381 
   18250    301.64606    315.34484     112185.9   -35494.434    6495.4567    6135.4562    140966.69   -35501.592 
   18500    302.16296    94.050421    113101.99   -35499.631    6506.5873    6128.9779    140957.61   -35508.205 
   18750    299.49855   -252.56786    113401.57   -35396.457    6449.2137    5955.0223    141231.81   -35406.234 
   19000    299.79183    36.670341    112734.13   -35681.532     6455.529    6103.7288    140813.11   -35690.761 
   19250    301.01282    116.55515    112287.05   -35504.153     6481.821    6080.7074    141010.12   -35510.768 
   19500    301.91311    125.10074    111868.99   -35604.942    6501.2072    6093.9304    140897.41   -35614.427 
   19750    301.12476    354.09974     112070.8   -35649.048    6484.2313    6248.9666    140691.66   -35654.722 
   20000    301.43259    150.69785    112335.94   -35605.189      6490.86    6155.2168    140834.77   -35615.689 
   20250    302.53368    292.70898    112513.87   -35501.939    6514.5702    6207.5073    140879.49   -35507.345 
   20500    299.86978    276.02952    112834.41   -35447.653    6457.2075    6166.4049    140981.57   -35455.309 
   20750    298.83331   -30.450124    113130.32    -35590.49    6434.8888    6119.0487    140879.95   -35600.243 
   21000    301.90391   -91.444362    113531.89   -35416.269    6501.0091     6020.927    141146.69   -35425.973 
   21250    298.14793   -158.36833    113717.56   -35259.597    6420.1302    5912.6601    141423.39   -35267.783 
   21500    301.02918   -159.74827    113606.56    -35410.69    6482.1733    6001.4719     141185.6   -35416.687 
   21750    299.39622   -38.634665    113175.79   -35406.479    6447.0101    6040.5235    141148.05   -35415.821 
   22000    299.50659   -93.787489    112556.95   -35444.668    6449.3868    5936.1563    141219.77   -35454.106 
   22250    295.33246    113.08102    111607.23   -35482.822    6359.5037    6045.4069     141065.9   -35492.429 
   22500    297.96549    9.2774412    112645.35   -35440.172    6416.2017    6038.2895    141119.31   -35447.085 
   22750    302.07265   -152.89822    112580.97   -35483.228    6504.6426    5914.7011    141201.58   -35489.686 
   23000    298.32481   -219.42676    112185.63   -35324.485    6423.9391    5852.2539    141412.89   -35332.971 
   23250    298.53939   -9.6589136    112335.99   -35489.745    6428.5597    6034.0537    141068.86   -35498.114 
   23500    297.98246   -336.24077    113218.77   -35397.333    6416.5671    5880.6515    141316.66   -35404.339 
   23750    302.10602    280.48974     112226.9    -35697.77    6505.3612     6239.091    140654.27   -35707.027 
   24000    298.84537   -23.133177    112710.12   -35531.171    6435.1484    6045.2861    141012.84   -35537.541 
   24250    301.57176    194.67316    113034.03   -35328.523    6493.8568    6087.8117    141174.97   -35334.984 
   24500    297.93181    97.531083    112331.64   -35508.112    6415.4764    6078.6634    141009.21   -35517.977 
   24750    298.59089   -507.06449    111899.79   -35537.909    6429.6687    5754.8088    141298.35   -35546.945 
   25000    305.91358   -30.666848    111745.73   -35592.145    6587.3509    6000.4902    141004.07    -35597.62 
   25250    302.75157    223.89638    111799.92   -35438.479     6519.262    6078.5934    141073.94   -35445.893 
   25500    304.31344   -291.31909    112094.23   -35581.997    6552.8944    5909.7735    141103.36   -35586.767 
   25750    301.05741    289.91974    111708.95   -35419.123    6482.7812    6072.5606    141100.87   -35425.001 
   26000    302.31493    95.222254    112315.93    -35452.89    6509.8597    6072.1719    141070.15   -35460.121 
   26250    299.43948    115.03085    112732.45   -35452.504    6447.9416    6076.4298    141057.52   -35456.777 
   26500    298.10802    62.522536    112460.96   -35244.843    6419.2708    5975.3575     141362.4   -35251.547 
   26750    300.82018    13.873542     112743.6    -35490.24    6477.6728    6028.1414    141075.55    -35497.81 
   27000    302.55726   -258.32859    113296.36   -35440.063    6515.0779    5897.3609    141255.36   -35446.884 
   27250    302.97907    372.39262     113077.8   -35657.274    6524.1609    6323.0231    140623.01   -35661.423 
   27500    300.87192   -106.27298    113214.01    -35661.87     6478.787    6063.6486    140881.41   -35668.057 
   27750    301.25691    203.02826    113121.83   -35584.166     6487.077    6192.8193    140816.72   -35590.906 
   28000     298.2584    297.85437    112508.72   -35489.297     6422.509    6207.0428    140891.81   -35495.929 
   28250    301.72755   -247.06391    113829.03   -35378.817    6497.2115    5956.0363    141255.96   -35383.181 
   28500    302.69839   -35.346717    113426.82    -35785.42     6518.117    6176.8388    140633.75   -35789.999 
   28750     302.8426    91.555188    112764.68   -35595.613    6521.2223    6136.8453    140859.44   -35600.633 
   29000    295.24916   -146.68514    113223.92   -35462.225      6357.71    6005.9325    141125.95   -35466.856 
   29250     299.7106   -412.37111    112940.21   -35666.634    6453.7797    5928.7557    141002.67   -35671.061 
   29500    302.60992   -45.153281    112936.04   -35594.738    6516.2119    6062.2941    140937.94   -35600.217 
   29750     299.8745   -6.2685516    113281.46   -35309.689     6457.309    6015.4852     141262.8   -35313.065 
   30000    297.21437    -7.782025    111877.18   -35541.257    6400.0274    5975.4763    141068.36   -35546.063 
   30250    299.08943   -452.28249    112746.32   -35509.863    6440.4038    5838.4629    141250.32   -35517.385 
   30500    298.81276    4.2597609     112459.6   -35559.918    6434.4463    6076.2015    140955.91   -35565.123 
   30750    301.35969    84.045359    112172.21   -35559.182    6489.2903    6071.1566    140966.87   -35565.073 
   31000    304.48331   -26.089682    112383.35   -35839.733    6556.5524    6169.8534     140585.4   -35845.642 
   31250    299.53863   -40.974621    112307.54   -35509.073    6450.0768    6039.7302    141038.45    -35516.96 
   31500    300.99253    281.11739    111855.93   -35660.672     6481.384    6210.0337    140720.56   -35668.273 
   31750    298.11495   -301.45272    112608.42   -35279.316      6419.42    5824.4398    141489.59   -35286.707 
   32000    298.78768    2.7700831    112484.47    -35554.76    6433.9061    6074.0994    140958.88   -35563.066 
   32250    302.52744   -427.00439    113161.87   -35560.151    6514.4357    5843.3704    141191.46   -35565.485 
   32500    302.16235    162.20223     112854.6   -35477.362    6506.5743    6103.6503    141008.75   -35485.704 
   32750    302.48734    127.49156    112389.35   -35479.717    6513.5723    6070.4546    141043.53   -35488.838 
   33000     303.7768   -186.88022    112813.18   -35556.575    6541.3388    5974.4876    141062.55   -35565.565 
   33250     299.6333    205.59299    112932.97   -35459.612    6452.1153    6155.2831    140979.59   -35466.976 
   33500    301.79063    154.13715    112629.68   -35327.991    6498.5698    6045.2821    141213.25   -35333.749 
   33750    303.50961   -96.913699     113068.8   -35531.893    6535.5853    6033.4664    141027.86   -35539.563 
   34000    299.52316     59.05999    112150.49   -35304.298    6449.7436    5987.4852    141302.97   -35313.309 
   34250    301.46343     164.6135    111726.14   -35695.843    6491.5242    6175.1258    140721.03   -35702.245 
   34500    301.31873   -54.569019    112548.71   -35669.383    6488.4082    6080.0879    140851.27   -35673.324 
   34750    297.90702    151.82443    112835.43   -35549.638    6414.9427    6163.1676    140872.24   -35557.718 
   35000    299.29821   -85.467157    112827.97   -35431.938    6444.8996    5978.3772    141179.93   -35438.256 
   35250    298.11467   -75.937141    112028.21    -35660.89    6419.4141    6042.1026    140888.88   -35665.122 
   35500    304.69533   -161.82734    112135.27   -35481.584    6561.1178    5874.5586    141242.58   -35487.051 
   35750    298.49476   -358.14522    113106.24   -35457.393    6427.5986    5858.0201    141285.63   -35461.398 
   36000    291.95293   -370.59543    112637.05   -35574.487    6286.7311    5939.0059    141073.56    -35582.68 
   36250    302.46273    168.13281    111616.43   -35430.517    6513.0424    6039.0632    141130.79    -35433.45 
   36500    299.56487   -157.08743     112040.4   -35518.212    6450.6418     5889.767    141185.12   -35524.646 
   36750    300.71334     12.30872    112789.24    -35507.94    6475.3722    6056.8601     141020.7   -35515.497 
   37000    300.54902   -9.1530425    112588.87   -35399.333    6471.8338    5967.1706    141231.14   -35406.821 
   37250    298.13964    -275.7412     112710.5   -35354.504    6419.9516    5846.7458    141387.33   -35359.521 
   37500    301.28726   -119.46625     113088.1    -35478.62    6487.7306    6022.3149    141089.05    -35484.12 
   37750    300.57698   -38.093353     112418.4   -35589.817    6472.4359    6080.4826    140909.01   -35598.133 
   38000    298.30074   -130.32863    112217.08   -35406.026    6423.4208    5920.1065    141263.23    -35413.02 
   38250    299.26981    227.21634    112304.86   -35526.739    6444.2881    6154.6129     140915.3   -35534.005 
   38500    297.35673   -18.280197    113108.09   -35525.632     6403.093    6102.9359    140958.19   -35532.539 
   38750    297.16327   -3.0886819    112807.96   -35555.299    6398.9272    6064.5388    140975.65   -35561.167 
   39000    299.77584    148.66322    112946.92   -35640.522    6455.1846    6206.1475    140744.39   -35649.622 
   39250     296.4562   -303.84326    113714.19   -35422.744    6383.7015    5921.1553    141244.81   -35430.739 
   39500    301.67181    445.49698    112625.21   -35554.894    6496.0113    6288.4332    140752.53   -35560.511 
   39750    303.72886   -177.98544    112249.08   -35643.056    6540.3064    5990.0227    140959.42   -35647.104 
   40000    297.96271   -136.80777    112324.26   -35519.707    6416.1418    5963.6091    141110.16   -35526.767 
   40250    302.10436   -59.188436    112394.24   -35683.497    6505.3256    6075.9969    140833.43   -35694.359 
   40500    300.12739   -68.793299    112538.45   -35416.089    6462.7547    5985.8957    141187.95   -35429.891 
   40750    300.22779    115.21387    112070.65   -35553.073    6464.9167    6093.8967    140937.19    -35565.47 
   41000    300.36468    123.98178    111984.48   -35518.158    6467.8644    6094.2163     140967.1   -35531.437 
   41250    296.48997   -134.75512    113091.53   -35471.084    6384.4288    6033.0517     141089.1    -35481.59 
   41500    297.06549    181.56171    111613.91   -35735.956    6396.8216    6175.0536    140689.67   -35748.236 
   41750    298.99994   -155.54902    112074.31   -35585.739    6438.4768    5968.3731       141039    -35594.81 
   42000    296.72858   -307.39492    112303.02   -35653.568    6389.5667    5910.9292    141017.61    -35664.46 
   42250    296.05852     147.0189    112890.89   -35594.563    6375.1382    6167.6763    140823.99   -35604.384 
   42500    301.70357     11.96866    113267.19   -35583.767    6496.6951    6117.8608    140895.76    -35590.87 
   42750    302.44078   -229.65583    113211.89   -35581.137    6512.5698     5995.225    141018.18   -35593.138 
   43000    297.09813   -12.099575    112828.89    -35613.71    6397.5245    6113.3836    140868.45   -35620.972 
   43250    299.72222    168.96045    112596.26   -35633.566    6454.0301    6149.3878    140807.14   -35643.133 
   43500    301.23531   -518.84834    113583.81   -35494.592    6486.6118    5859.4511    141236.38   -35505.763 
   43750    301.14913    105.76868    112318.12   -35714.437    6484.7561    6167.5984    140712.16   -35720.106 
   44000    297.87459   -211.35093    112933.63   -35299.428    6414.2443    5873.8553    141411.36   -35308.848 
   44250    299.80565    357.28279     112184.9   -35549.098    6455.8265    6187.7796     140856.6   -35557.261 
   44500    295.04803   -267.70047     112748.3   -35433.486    6353.3789    5905.0952       141254   -35441.802 
   44750    298.01832    369.64789    112101.74   -35353.426    6417.3393    6117.4236    141120.13   -35361.384 
   45000    297.22841    236.20698    113377.06   -35424.374      6400.33    6186.6769    140982.47   -35431.525 
   45250     303.1329   -4.5372566    113475.94   -35449.981    6527.4734     6075.904    141070.54   -35456.333 
   45500    297.69173    125.66668    112115.99   -35520.875    6410.3067    6080.8771    140990.58   -35525.872 
   45750    303.36363    254.92409    112174.96   -35572.899    6532.4418    6115.7759    140911.73   -35580.405 
   46000    298.37044    142.96704    112879.62   -35390.601    6424.9217    6090.0904    141108.09   -35400.155 
   46250    299.34911    -38.67547    112460.72   -35702.841    6445.9958    6095.3396    140786.82   -35709.536 
   46500     302.3126    380.00357    112295.09   -35444.992    6509.8097    6183.3408    140963.02   -35452.125 
   46750    297.72844   -81.913192    112468.34   -35470.582    6411.0971    5973.0155    141139.12    -35478.49 
   47000     300.5423      42.9198    112183.96   -35465.775    6471.6891    6046.1351    141061.19   -35473.284 
   47250    301.96197   -16.231334     112882.2   -35534.272    6502.2595    6054.0901     141007.8   -35538.623 
   47500    299.54439    41.114361     112388.6   -35491.368    6450.2007    6050.6266    141052.23   -35497.491 
   47750    299.79816    -112.6785    112135.35   -35588.019    6455.6653    5993.5113    141023.66   -35593.711 
   48000    297.89484   -273.48567    112466.04    -35420.77    6414.6804     5870.506    141304.72   -35428.758 
   48250    298.53939    51.572339    112330.95   -35591.631    6428.5597    6115.3699    140879.58   -35599.444 
   48500    300.65553    152.74059    112822.99   -35511.198    6474.1272    6154.3707    140933.43   -35516.899 
   48750    299.06169   -118.98311     113135.6   -35405.874    6439.8065    5997.5497     141189.6   -35413.342 
   49000    300.14678    77.821359    112747.56   -35544.102    6463.1721     6082.005    140978.73   -35549.054 
   49250    292.85967   -258.87818     113046.7   -35478.653    6306.2561    5947.5226    141166.72   -35484.363 
   49500    298.49801   -1.1397703    112385.54   -35637.976    6427.6687    6110.3783    140846.31   -35644.226 
   49750    298.58656   -103.37203    112584.67   -35456.108    6429.5753     5963.645    141171.22   -35461.556 
   50000     300.2773    112.84613    112271.68   -35458.666    6465.9828    6075.9581    141064.87   -35465.128 
   50250    293.58367    78.230275    112156.56   -35347.084    6321.8463    5998.3913    141251.03   -35351.415 
   50500     303.8583    30.746454    112443.02   -35405.831    6543.0938     5964.379    141219.06    -35410.74 
   50750    301.66577   -107.63363    112989.19   -35273.489    6495.8812    5935.3857    141385.35   -35279.009 
   51000    299.56449    17.548079    112950.98   -35481.485    6450.6335    6073.0475    141045.02   -35485.366 
   51250    300.77949   -93.528411    113424.65   -35400.133    6476.7965    6041.4405    141152.87   -35404.952 
   51500    297.03195    248.73784    112155.96   -35524.506    6396.0995    6150.9679    140918.16   -35527.293 
   51750    295.14526   -88.261272    112514.99   -35360.297    6355.4725    5916.1512    141326.25   -35364.013 
   52000    297.82162   -144.46197    112595.95   -35452.438    6413.1038    5928.6065    141212.46   -35456.186 
   52250    302.99737    325.34541    112053.01   -35350.064     6524.555    6101.0734    141139.29   -35357.491 
   52500    293.49655   -122.33342     112758.3   -35460.764    6319.9703    6002.1155    141122.47   -35467.009 
   52750    299.99722   -78.178304    112042.53   -35631.775    6459.9517    6031.7317    140935.52   -35636.886 
   53000    304.38437   -224.99514    112384.21    -35451.58    6554.4219    5882.1819    141260.94   -35456.913 
   53250    300.99359   -208.18848    112244.87   -35532.565    6481.4069    5943.0656    141124.75   -35537.382 
   53500    297.11128   -457.21015    112924.59   -35648.786    6397.8076    5899.8474    141050.98   -35653.144 
   53750    296.81639    187.40726    112184.02   -35395.848    6391.4577    6087.1453     141111.1   -35401.466 
   54000    303.57776    202.48944    112672.24   -35603.012    6537.0527    6218.7015    140765.88   -35608.387 
   54250    303.26846   -471.49048    113513.58   -35478.236    6530.3924    5833.7002    141283.92   -35483.492 
   54500    303.15028    42.408628    112383.49    -35664.53    6527.8478    6125.2477    140803.28   -35671.068 
   54750    295.82119   -4.3352341    113082.19   -35391.659    6370.0277    6030.0697    141168.77   -35395.857 
   55000    301.23473    146.42465    112492.58   -35498.312    6486.5993    6108.0284    140996.34   -35501.546 
   55250    302.85214    202.83951    113049.13   -35477.405    6521.4277    6180.2266    140936.51     -35483.2 
   55500    302.85584    179.86383     113519.2   -35523.848    6521.5073    6204.4639    140860.55   -35530.009 
   55750    302.39908    64.621103    112886.27   -35448.769    6511.6718    6080.2162    141068.27   -35455.573 
   56000     300.8081     126.9433    112909.74   -35658.601    6477.4127    6165.1096    140767.83   -35663.564 
   56250    295.89719    143.88483    113444.82   -35631.418    6371.6643    6244.4799    140717.85   -35637.179 
   56500    296.74511     276.4791    112157.76   -35573.147    6389.9228    6184.3202    140838.84   -35578.408 
   56750     297.1057   -182.95684    112079.87   -35549.345    6397.6876    5934.7502    141108.82   -35554.988 
   57000    301.95017    80.598612    111685.64   -35628.663    6502.0053     6053.571    140914.98    -35633.92 
   57250    298.95334    -167.9817    113142.75   -35440.441    6437.4734     5968.681    141184.06   -35447.344 
   57500    296.90237    33.817212    112963.84   -35347.095     6393.309    6007.0818    141243.49   -35352.019 
   57750    300.93712    -121.3331    112904.17    -35459.57    6480.1909    5980.7224    141150.55   -35464.164 
   58000    297.89845   -205.51451    113152.82   -35499.738    6414.7581    5959.3617    141138.73    -35508.23 
   58250    296.86288   -142.32437    113004.91   -35528.568    6392.4587    6015.5348    141048.94   -35535.814 
   58500    302.21678   -75.666197     112822.4   -35492.951    6507.7462    6002.9111    141102.89   -35499.824 
   58750    301.80683    317.22127    111608.64   -35496.608    6498.9188    6131.7342    140964.65   -35505.551 
   59000    301.80543   -422.30855    112748.32   -35548.597    6498.8886    5856.3683    141190.41   -35553.843 
   59250     303.1304    138.85645    112533.01   -35570.878    6527.4197    6132.2767    140888.57   -35578.229 
   59500    297.89784    175.76129    112862.79   -35435.354     6414.745     6139.947    141011.73    -35443.07 
   59750    301.16453   -144.06009    113670.29    -35490.33    6485.0878    6022.0732    141076.64   -35497.502 
   60000    300.37973    105.67597    113673.09   -35420.034    6468.1884    6133.3281    141035.49   -35427.864 
   60250    303.70945    253.89263    113827.22    -35405.76    6539.8886    6171.2822    141018.76   -35414.977 
   60500    305.91276   -323.15098    113771.57   -35407.818    6587.3332    5930.5836    141259.74   -35415.478 
   60750    299.20173    224.17337    112511.77   -35554.412     6442.822    6179.4595    140860.41   -35566.827 
   61000    299.96252   -134.00558    112977.12   -35406.963    6459.2045    5950.9651    141236.42   -35416.271 
   61250    303.03633    277.39676    112377.22   -35518.963    6525.3939     6151.115     140913.3   -35528.349 
   61500    299.01444    125.19587    113143.77   -35389.535     6438.789    6084.3271    141122.47   -35393.938 
   61750    299.83497    138.65812    112608.69   -35427.673    6456.4578    6094.6208    141075.22   -35432.681 
   62000    300.80775   -88.328498    112316.43    -35674.43    6477.4052    6074.1431     140845.8   -35685.074 
   62250    297.28947   -323.55451    112578.01    -35498.99    6401.6448    5876.0307    141211.15   -35510.307 
   62500    304.43714    164.90445    112460.47   -35351.823    6555.5581    6032.8646    141196.76   -35358.414 
   62750      305.894    146.80286    112166.17   -35518.445    6586.9292    6076.4549    140998.02   -35528.833 
   63000    302.27885   -71.839963    112414.72   -35457.383    6509.0829    5974.7804    141159.85   -35468.126 
   63250    305.19953    -18.65788    112480.74   -35395.062     6571.975    6004.4528    141190.34   -35401.853 
   63500    299.42234   -357.74935    113122.98   -35506.085    6447.5727    5924.3207    141168.66   -35513.636 
   63750    297.51823   -132.05668    113441.59   -35493.421    6406.5706    6027.3887    141066.34   -35500.618 
   64000    302.06154    149.22776    113207.44   -35552.636    6504.4034    6196.4347    140847.36   -35557.868 
   64250    301.77903    -44.61316    112779.93   -35482.038    6498.3201    6004.0892    141101.89   -35490.222 
   64500    293.21237    430.18235    112698.41   -35407.707    6313.8511    6263.0103    140927.12   -35413.116 
   64750    300.21325   -105.82411     113091.6   -35460.864    6464.6035    5999.9541    141134.77   -35462.873 
   65000    303.97774    260.26737    112804.06   -35625.504    6545.6657    6232.4241    140737.67   -35629.581 
   65250    302.50171    312.79845    113132.94   -35538.843    6513.8819     6245.535    140813.13   -35543.775 
Loop time of 7290.36 on 1 procs (1 MPI x 1 OpenMP) for 65250 steps with 10825 atoms

Pair  time (%) = 5112.85 (70.1316)
Bond  time (%) = 0.224687 (0.00308198)
Kspce time (%) = 649.596 (8.91034)
Neigh time (%) = 833 (11.426)
Comm  time (%) = 20.6043 (0.282624)
Outpt time (%) = 0.264039 (0.00362175)
Other time (%) = 673.826 (9.2427)

FFT time (% of Kspce) = 184.998 (28.4789)
FFT Gflps 3d (1d only) = 1.63258 2.68931

Nlocal:    10825 ave 10825 max 10825 min
Histogram: 1 0 0 0 0 0 0 0 0 0
Nghost:    26454 ave 26454 max 26454 min
Histogram: 1 0 0 0 0 0 0 0 0 0
Neighs:    3.56176e+06 ave 3.56176e+06 max 3.56176e+06 min
Histogram: 1 0 0 0 0 0 0 0 0 0

Total # of neighbors = 3561765
Ave neighs/atom = 329.031
Ave special neighs/atom = 2.00813
Neighbor list builds = 6766
Dangerous builds = 0
write_restart   confout-0.data
PPPM initialization ...
  G vector (1/distance) = 0.264943
  grid = 36 20 20
  stencil order = 5
  estimated absolute RMS force accuracy = 0.0367581
  estimated relative force accuracy = 0.000110696
  using double precision FFTs
  3d grid and FFT values/proc = 29889 14400
