LAMMPS (24 Apr 2013)
WARNING: OMP_NUM_THREADS environment is not set. (../comm.cpp:100)
  using 1 OpenMP thread(s) per MPI task
# ----------------- Init Section -------------------------------------------------------
units           real
atom_style      full
boundary	p p p
pair_style	lj/cut/coul/long 9.8 9.8
pair_modify     mix arithmetic
kspace_style	pppm 1.0e-4
bond_style      harmonic
angle_style     harmonic
dihedral_style  none
improper_style  none

# ----------------- Atom Definition Section --------------------------------------------
read_data "cg50-2.data"
  2 = max bonds/atom
  1 = max angles/atom
  orthogonal box = (0 0 0) to (263 50 50)
  1 by 1 by 1 MPI processor grid
  44200 atoms
  29498 bonds
  14700 angles
  2 = max # of 1-2 neighbors
  2 = max # of 1-3 neighbors
  4 = max # of 1-4 neighbors
  6 = max # of special neighbors

# ----------------- Settings Section ---------------------------------------------------
# Bond parameters
#           bond-type   k      	r0
# Water
bond_coeff   	1  	200.0   1.0
angle_coeff  	1 	200.0   109.47
# CG25
bond_coeff  	2       72.54   2.5

# LJ Interactions
#             atom1   atom2	epsilon	sigma
pair_coeff   	1 	1 	0.1553  3.166
pair_coeff   	1 	2 	0.0     0.0
pair_coeff 	1 	3 	0.1777 	3.783
pair_coeff   	2 	2 	0.0     0.0
pair_coeff   	2 	3 	0.0     0.0
pair_coeff 	3 	3 	0.2032	4.4

group spc type	1 2
44100 atoms in group spc

# ----------------- Minimize -----------------------------------------------------------
# command  	etol    ftol   maxiter  maxeval
minimize	1.0e-4	1.0e-6	100	1000
WARNING: Resetting reneighboring criteria during minimization (../min.cpp:173)
PPPM initialization ...
  G vector (1/distance) = 0.260523
  grid = 100 27 27
  stencil order = 5
  estimated absolute RMS force accuracy = 0.0385118
  estimated relative force accuracy = 0.000115977
  using double precision FFTs
  3d grid and FFT values/proc = 121380 72900
Memory usage per processor = 103.432 Mbytes
Step Temp E_pair E_mol TotEng Press 
       0            0   -61738.728    1358132.2    1296393.5    13145.175 
     100            0   -95654.946    4517.9283   -91137.017     -9383.68 
Loop time of 58.0371 on 1 procs (1 MPI x 1 OpenMP) for 100 steps with 44200 atoms

Minimization stats:
  Stopping criterion = max iterations
  Energy initial, next-to-last, final = 
         1296393.49911      -89433.618476     -91137.0174484
  Force two-norm initial, final = 62879.9 684.445
  Force max component initial, final = 3297.3 38.5905
  Final line search alpha, max atom move = 0.00206156 0.0795568
  Iterations, force evaluations = 100 170

Pair  time (%) = 49.6445 (85.5393)
Bond  time (%) = 0.41948 (0.722779)
Kspce time (%) = 6.32635 (10.9005)
Neigh time (%) = 1.29971 (2.23945)
Comm  time (%) = 0.101482 (0.174857)
Outpt time (%) = 0.000254869 (0.000439149)
Other time (%) = 0.245272 (0.422613)

FFT time (% of Kspce) = 1.01755 (16.0843)
FFT Gflps 3d (1d only) = 1.60435 2.53943

Nlocal:    44200 ave 44200 max 44200 min
Histogram: 1 0 0 0 0 0 0 0 0 0
Nghost:    54901 ave 54901 max 54901 min
Histogram: 1 0 0 0 0 0 0 0 0 0
Neighs:    1.03918e+07 ave 1.03918e+07 max 1.03918e+07 min
Histogram: 1 0 0 0 0 0 0 0 0 0

Total # of neighbors = 10391807
Ave neighs/atom = 235.109
Ave special neighs/atom = 2.00851
Neighbor list builds = 4
Dangerous builds = 0

# ----------------- Run it --------------------------------------------------------------
# Write initial structure out
dump            icrd all custom 5 system.lammpstrj id mol type x y z ix iy iz
dump_modify     icrd sort id
run             1
WARNING: No fixes defined, atoms won't move (../verlet.cpp:54)
PPPM initialization ...
  G vector (1/distance) = 0.260523
  grid = 100 27 27
  stencil order = 5
  estimated absolute RMS force accuracy = 0.0385118
  estimated relative force accuracy = 0.000115977
  using double precision FFTs
  3d grid and FFT values/proc = 121380 72900
Memory usage per processor = 104.443 Mbytes
Step Temp E_pair E_mol TotEng Press 
     100            0   -95654.946    4517.9283   -91137.017     -9383.68 
     101            0   -95654.946    4517.9283   -91137.017     -9383.68 
Loop time of 0.340542 on 1 procs (1 MPI x 1 OpenMP) for 1 steps with 44200 atoms

Pair  time (%) = 0.299266 (87.8793)
Bond  time (%) = 0.00285792 (0.839228)
Kspce time (%) = 0.0373132 (10.957)
Neigh time (%) = 0 (0)
Comm  time (%) = 0.00065589 (0.192602)
Outpt time (%) = 0.000248194 (0.072882)
Other time (%) = 0.000200987 (0.0590197)

FFT time (% of Kspce) = 0.0101527 (27.2094)
FFT Gflps 3d (1d only) = 1.60795 2.54897

Nlocal:    44200 ave 44200 max 44200 min
Histogram: 1 0 0 0 0 0 0 0 0 0
Nghost:    55133 ave 55133 max 55133 min
Histogram: 1 0 0 0 0 0 0 0 0 0
Neighs:    1.03778e+07 ave 1.03778e+07 max 1.03778e+07 min
Histogram: 1 0 0 0 0 0 0 0 0 0

Total # of neighbors = 10377829
Ave neighs/atom = 234.793
Ave special neighs/atom = 2.00851
Neighbor list builds = 0
Dangerous builds = 0

# Reset the timestep
undump          icrd
reset_timestep  0

# Timestep and Neighbour searching
timestep	2.0
neighbor        2.0 bin
neigh_modify	delay 9 every 1 check yes

# Fixes
fix 		shake spc shake 0.0001 10 0 b 1 a 1
  0 = # of size 2 clusters
  0 = # of size 3 clusters
  0 = # of size 4 clusters
  14700 = # of frozen angles
fix   		npt all npt temp 300.0 300.0 100.0 iso 1.0 1.0 1000.0

# Initial velocity
#velocity	all create 300 432567 dist uniform

# Write out thermodynamic information
thermo_style    custom step temp press vol pe ke evdwl ecoul epair
thermo	        250

# Write out trajectory
dump            cxtc all xtc 250 traj-0.xtc

# Write out velocity
#dump 		1 all custom 1 vel_npt.txt vx vy vz

# Final run command
run             65250
PPPM initialization ...
  G vector (1/distance) = 0.260523
  grid = 100 27 27
  stencil order = 5
  estimated absolute RMS force accuracy = 0.0385118
  estimated relative force accuracy = 0.000115977
  using double precision FFTs
  3d grid and FFT values/proc = 121380 72900
Memory usage per processor = 104.877 Mbytes
Step Temp Press Volume PotEng KinEng E_vdwl E_coul E_pair 
       0            0   -33269.962       657500   -95650.521            0   -5928.7369    631245.67   -95654.946 
     250    331.88517   -229.13095    631709.97   -127689.45    29182.967    21146.202     573904.5   -127693.01 
     500    300.08576   -518.10017    621858.17    -135331.3    26386.816    23036.963    564481.35   -135334.76 
     750    300.49967   -447.22201       609155   -137436.72    26423.211    23791.601    561664.53   -137441.86 
    1000    299.11754   -685.11974    596181.94   -137989.65    26301.679    23247.266    561677.82   -137995.74 
    1250    298.46919    -444.6697    584286.43   -139113.58    26244.669    24059.987    559765.29   -139120.15 
    1500     300.1972   -405.41278    572854.34    -139943.2    26396.615    24189.456    558846.55   -139950.28 
    1750     298.3737   -345.49104    563130.29   -140305.86    26236.273    24311.122    558365.49   -140315.86 
    2000    299.64055   -318.69994    554243.27   -140911.16    26347.668     24399.29     557713.9    -140919.6 
    2250     300.6118   -397.92033    546453.32   -141293.28     26433.07    24258.278    557462.21   -141302.23 
    2500    302.66282    -370.3963    537397.63   -141544.63    26613.419    24257.655    557226.71   -141555.39 
    2750    301.49381   -515.76882    528890.46   -141996.84    26510.627    24043.401    557016.04    -142009.2 
    3000    299.58506   -343.82793    521290.09   -141887.62    26342.789    24283.658    556874.57   -141899.65 
    3250    299.85037   -302.23775    513407.79    -142349.9    26366.118    24404.297    556311.87   -142363.18 
    3500    299.15483   -311.62655    506797.64   -142697.23    26304.958     24382.73    556004.55   -142709.36 
    3750    300.06547   -284.11526    501307.19   -142964.45    26385.032    24345.377    555783.81   -142980.43 
    4000    299.78007   -208.20008    495269.58   -142968.37    26359.936    24413.114     555695.3   -142987.09 
    4250    297.23635   -230.39126    490008.14   -143166.57    26136.264    24402.511    555529.58   -143182.11 
    4500    298.61418   -265.21222    484827.05   -143787.19    26257.418    24428.338     554892.1    -143803.6 
    4750    296.44909   -250.33309    480974.41   -143655.64     26067.04    24385.566    555097.49   -143672.62 
    5000    299.73236   -45.777478     477399.6   -144123.79    26355.741    24820.315     554174.1   -144140.82 
    5250    300.33342   -112.76672    474154.03   -144120.28    26408.592    24562.061    554453.49   -144138.62 
    5500     298.7205   -41.757447    470882.87   -144346.14    26266.767    24675.803    554101.04   -144365.93 
    5750    298.68172   -66.312647    467948.99   -144358.16    26263.357    24575.071    554210.01   -144378.55 
    6000    301.13671   -97.937783    466641.03    -144430.7    26479.227    24462.419    554223.88   -144452.03 
    6250    300.28204    166.95169    464823.27   -144672.61    26404.075    25042.629    553440.01   -144690.44 
    6500    297.31846   -55.678001    463445.75   -144964.85    26143.484    24727.793    553446.75   -144986.44 
    6750    299.67006   -132.57336     463195.4   -144945.73    26350.263    24529.064    553670.23   -144968.89 
    7000    296.94599   -94.245865    462641.42   -144912.09    26110.733    24549.261    553689.17   -144933.21 
    7250    298.87197   -37.742803    462931.59    -144905.3    26280.086    24775.866     553473.3   -144925.84 
    7500    298.86707   -90.264817    462030.03   -144804.72    26279.655    24540.898    553784.68   -144831.23 
    7750    302.85876    45.123119    459699.99    -145307.5    26630.648    24893.817    552941.05   -145330.52 
    8000    296.45478    84.958575    460380.62   -144823.83     26067.54    24839.327    553482.57   -144850.85 
    8250    299.24371     56.98134    460354.92   -145218.15    26312.773    24985.793    552938.81   -145243.34 
    8500    300.69097   -74.000982    460756.05   -144729.82    26440.033    24452.118    553957.76   -144754.43 
    8750    299.70392   -39.329345     460633.9   -144953.46     26353.24    24647.355    553528.84   -144975.07 
    9000    298.30385    66.651749    459979.69   -144744.85    26230.131    24836.956    553569.67   -144771.06 
    9250    299.94391   -44.613655    459367.83   -144786.39    26374.343    24550.216    553815.25    -144808.1 
    9500    298.17376   -56.766389    457161.14   -145157.78    26218.692    24455.918    553538.71   -145182.01 
    9750    299.75826    76.352043     457837.6   -144876.52    26358.018    24645.493     553617.4   -144903.24 
   10000    300.12133   -99.915019    458956.73   -145329.81    26389.944    24628.992     553189.4   -145354.78 
   10250    301.36089   -97.626591    458299.82   -144983.74    26498.939    24436.553    553717.17   -145012.51 
   10500    298.62072   -21.575403    458619.84   -145183.41    26257.994    24651.094    553302.88   -145209.81 
   10750    301.92907   -10.519889    461239.51   -145179.26      26548.9     24873.94    553092.77   -145202.35 
   11000    299.33371    153.89964    461010.36   -145080.36    26320.688    25107.737    552961.09   -145104.23 
   11250     301.5709   -46.009616    459808.29   -145166.04    26517.406    24691.621    553282.56   -145192.62 
   11500    298.81718    -101.0633    460043.21   -145032.64    26275.268    24477.143    553626.29   -145056.41 
   11750    299.12789   -113.78506    461500.56   -145104.41    26302.589    24666.374    553377.45   -145130.22 
   12000    300.66605   -25.908587    460800.52   -145141.84    26437.841    24757.829    553239.68   -145167.06 
   12250    299.74722    47.622944    461784.39   -144642.21    26357.047    24820.738     553685.7   -144661.55 
   12500    302.50021    170.03787    460679.01   -144927.32    26599.121    25060.276    553139.21   -144952.81 
   12750    299.95198   -102.44497    461111.16   -145045.73    26375.052    24554.064    553532.31   -145075.12 
   13000    299.57045     91.79786     460663.2   -144908.42    26341.504    24961.421    553283.69   -144928.95 
   13250    302.60351   -30.454816    460663.93   -144828.78    26608.204    24645.676    553657.25   -144858.97 
   13500    302.41745    44.820364    459689.02   -144695.21    26591.843    24656.817    553781.92   -144729.64 
   13750    299.88805   -2.8337848    459310.69   -144900.79     26369.43    24558.187    553699.05   -144923.72 
   14000    300.24113    24.035163    459760.49   -145098.39    26400.478    24860.463    553184.09   -145122.21 
   14250    298.33767   -149.65579    459420.07   -144991.43    26233.105      24308.4    553843.14   -145024.09 
   14500    300.06188    91.070763    458462.34    -145200.9    26384.716    24913.974    553044.51   -145232.57 
   14750    300.17428   -5.0722422    458142.15   -144919.01    26394.599    24584.332    553634.52   -144949.61 
   15000    299.79024   -109.19962    460963.25   -144574.43     26360.83    24338.093    554219.49   -144607.66 
   15250    300.96235    53.493994    459078.23   -145132.19    26463.895    24751.701    553240.31   -145162.13 
   15500    300.40507   -214.91997    460680.03   -144759.29    26414.893    24286.671    554077.18      -144788 
   15750      299.033   -130.60465     461824.1   -144885.92    26294.246    24520.543    553721.37   -144909.87 
   16000    297.68681    74.900431    459712.77   -145339.21    26175.873     24983.01    552809.86   -145369.01 
   16250    299.08707    198.33142    457599.78   -145016.01        26299    24966.577    553160.75   -145042.52 
   16500    297.27554    13.340256    457724.29   -145118.34     26139.71    24676.198     553334.9    -145143.1 
   16750    298.67655    10.343298    458865.52    -145082.1    26262.902    24698.166    553373.37   -145104.83 
   17000    300.35258   -74.107579    460882.72   -144672.65    26410.277    24491.541    553960.69    -144696.3 
   17250     301.4853    134.32075    459769.91   -144723.76    26509.878    24871.132    553550.12   -144749.86 
   17500    297.93411   -195.57227     460324.5   -145295.09    26197.619     24481.86    553383.38    -145315.1 
   17750    301.39631   -188.81381    460938.43   -144980.15    26502.054    24421.973    553734.08   -145008.48 
   18000     300.0657    43.237836    459750.46   -144943.74    26385.051    24816.811    553376.42   -144969.48 
   18250    299.71941   -142.56425    458842.82   -145169.39    26354.602    24484.231     553494.9   -145197.44 
   18500     300.0957   -121.40046    460399.07   -144670.64     26387.69    24330.954    554136.52   -144697.72 
   18750    301.81818   -64.631258    459996.59   -144776.29    26539.149    24435.817    553944.25   -144796.09 
   19000    301.12774    150.07002    458317.41   -145033.89    26478.438    24940.401     553156.9   -145060.45 
   19250    301.22801   -58.632505    460559.53   -144988.82    26487.255     24670.02    553501.62   -145008.51 
   19500    297.91398   -26.919085    460319.17   -144671.74    26195.849    24637.396    553833.09   -144700.01 
   19750    300.37501   -41.173653    458744.01   -145184.67    26412.249    24668.472    553278.78   -145210.78 
   20000    298.67141     51.29188    458893.98   -144887.35    26262.451    24695.863    553551.44   -144918.16 
   20250    299.98325    -129.0392    458421.14   -145344.97    26377.802    24502.584     553288.3   -145373.18 
   20500    298.15599    158.90056    458161.08   -144980.67    26217.129    24953.845    553235.92   -145005.85 
   20750    300.37061   -260.42282    460819.92   -144909.44    26411.863    24243.081    553995.25   -144936.45 
   21000    300.76658    64.056886    460476.04   -144999.26    26446.681    24831.056    553297.44   -145037.06 
   21250    300.00497     104.3941    458663.07   -144918.93    26379.712    24798.628    553411.02   -144948.93 
   21500    301.84564    217.56883    458492.82   -145074.36    26541.564    25096.404    552975.29   -145097.72 
   21750    303.03753   -24.223069    460311.89   -144903.89    26646.367    24631.622    553595.09   -144936.71 
   22000    301.36197    55.818712    458869.83   -144921.34    26499.034    24702.847    553522.26   -144949.86 
   22250    301.25735   -129.62897     459900.5   -145082.39    26489.834     24466.34    553573.96   -145114.52 
   22500    298.86053   -150.28972    461120.11   -144874.74     26279.08    24416.502    553860.33   -144894.21 
   22750     295.4091   -30.639905    461177.29   -144745.81    25975.593    24631.355    553748.85   -144774.61 
   23000    297.99924   -126.69217     460691.2   -144953.33    26203.346    24468.969    553716.27   -144981.59 
   23250    299.88336   -138.19324    460401.85   -144932.36    26369.019    24446.206    553769.13   -144960.33 
   23500    300.46143     277.5391     457846.4   -145147.95    26419.849    25198.199     552786.6   -145184.63 
   23750    300.64808   -178.37959    460575.48   -144655.64    26436.261    24244.874    554226.93   -144681.34 
   24000    301.28337    195.17042    459138.03   -144769.69    26492.122    24954.482    553423.52   -144793.35 
   24250    299.49637   -59.108519    459186.62   -145094.59     26334.99    24550.249    553510.67   -145122.23 
   24500    300.46612    55.748631    457548.75    -144995.4    26420.261    24672.083    553465.78   -145021.66 
   24750    300.63134   -149.43821    459347.97   -145052.53    26434.789    24339.681    553749.82   -145077.16 
   25000    299.02361     -103.088    460344.62   -144952.13     26293.42    24433.448    553769.98   -144980.53 
   25250    298.98458   -40.210675    460810.31    -145001.3    26289.988    24696.224    553434.05   -145036.46 
   25500    299.83999   -121.48437    461252.45    -144817.4    26365.204    24477.894    553839.37   -144842.64 
   25750    299.23478    168.67282    460210.92   -144863.23    26311.989     25029.16     553238.5   -144893.21 
   26000    301.91541   -16.797456    460524.82   -144755.09    26547.698    24562.978    553838.56   -144783.66 
   26250    298.42277   -96.686183    458467.32   -145033.68    26240.587    24413.086    553687.69   -145062.63 
   26500    301.97474   -20.212416    460821.73   -144962.25    26552.915    24668.703    553497.21   -144991.65 
   26750     301.7195    53.664117    461677.38   -144984.43    26530.472    24960.384     553197.3   -145009.66 
   27000    302.01958    92.992402    460835.03   -145028.94    26556.858     24978.77    553108.63   -145053.95 
   27250    299.72929    89.615652    460859.66   -144714.73    26355.471    24819.967    553592.49   -144744.71 
   27500    301.82413     17.77861    460693.26   -144980.85    26539.672    24774.872    553381.98   -145009.76 
   27750    299.12666    108.00426    460001.82   -144736.33    26302.481    24871.316    553535.62   -144768.45 
   28000    298.15316   -5.0040232    460664.95   -144641.45    26216.881    24598.144    553891.86   -144671.56 
   28250    300.58938    64.946909    459150.22   -144789.94    26431.099    24738.555     553623.6   -144826.52 
   28500    300.36328   -14.243161    459496.98   -145005.11    26411.218    24714.991    553417.04   -145038.58 
   28750    300.28219    90.173301     458268.6   -145319.42    26404.088    24878.451    552925.13   -145353.64 
   29000    301.61197   -99.814924    460486.14   -145112.97    26521.016    24643.769    553382.37   -145144.59 
   29250     297.9851    13.617478    460159.21   -145326.39    26202.102    24910.498    552917.22   -145354.17 
   29500    298.94952   -48.081661    461549.47   -144951.29    26286.905    24693.305    553483.13   -144975.59 
   29750    300.24194   -185.16655    462535.16   -144942.61    26400.549    24470.713    553722.74    -144959.8 
   30000    301.00454   -6.8164987    459049.52    -145261.5    26467.605    24727.814    553156.25   -145287.26 
   30250    299.23972    76.847439    458963.31   -144889.37    26312.422    24742.106     553496.8   -144915.09 
   30500    299.25007     85.19176    457765.47   -144747.45    26313.333    24662.313    553734.86   -144774.08 
   30750    299.52299    79.804175    458284.38   -144667.88    26337.331    24649.453    553830.04   -144694.51 
   31000    298.77679   -79.087401    460609.01   -144512.07    26271.716    24394.336    554228.44   -144535.59 
   31250    300.31698     71.36575    459201.21   -145081.41    26407.147    24834.751    553231.83   -145107.77 
   31500    300.56988    90.227031    459455.43   -145042.34    26429.385    24866.087    553229.16   -145065.55 
   31750    299.86671    59.546191    458758.32   -145235.77    26367.555    24870.253    553056.39   -145266.84 
   32000    297.37047   -120.29049    458628.21   -145054.27    26148.057    24460.446    553628.06   -145076.65 
   32250    298.99318    -126.7699    459425.34   -144845.66    26290.744    24375.041    553908.85    -144870.4 
   32500    299.13552    6.6352683     459470.6   -144738.03     26303.26    24616.762    553797.97   -144760.71 
   32750    302.88082    72.685564    459491.66   -144864.73    26632.588    24685.082    553591.56   -144894.76 
   33000    297.48171    124.01725    458718.99   -145094.38    26157.839    24992.372    553066.57    -145121.2 
   33250     297.4331   -137.30859    460208.97   -144897.53    26153.565    24379.155    553851.39   -144924.08 
   33500    299.29004   -14.495832    459776.26   -145062.35    26316.847    24628.157    553452.66   -145096.25 
   33750    300.13905   -133.69946    459558.52   -144976.49    26391.501    24407.031    553758.75   -145009.01 
   34000     302.0508   -201.39908    460438.27   -144813.33    26559.603    24224.177    554101.49    -144843.2 
   34250    300.04116   -4.9556793    461531.61   -144906.82    26382.894    24736.902    553507.48   -144933.13 
   34500    300.81093   -291.20505    461451.14   -144917.01    26450.581    24182.644    554035.47      -144947 
   34750    300.42735    86.798748    460665.81   -145030.75    26416.852    24973.202    553143.11   -145059.47 
   35000    300.57401    18.697383    460435.44   -144727.01    26429.748    24609.277     553799.7   -144751.71 
   35250    297.73662   -31.347137    460579.78   -144769.09    26180.254    24607.787    553760.87    -144796.9 
   35500    299.21691   -268.99561    461099.92    -145037.3    26310.417    24264.848    553844.36   -145061.65 
   35750    302.11014    137.28107    460197.91   -144891.14    26564.821    24945.911     553309.6   -144916.54 
   36000    300.73787   -2.3901292     460597.9   -144911.61    26444.156    24710.715    553528.86   -144939.35 
   36250     300.6805   -18.439035    459538.89    -145087.8    26439.111    24609.793    553449.75   -145115.23 
   36500    300.42428    55.473685    458860.35   -145119.15    26416.582     24830.83    553191.73   -145145.61 
   36750    300.85129    5.3872436    459211.85   -144938.49    26454.129    24620.184    553579.18   -144965.71 
   37000     302.7812    44.449775    460478.81   -144965.08    26623.828    24767.882    553396.93   -144991.51 
   37250    300.13162    50.106637    462059.43   -144656.43    26390.848    24774.159    553707.56   -144683.45 
   37500    300.18757    105.12726    460044.88   -144870.75    26395.768     24894.06    553392.03   -144891.96 
   37750    301.80615    66.210924    458584.84   -144932.26    26538.091    24691.217    553491.04   -144959.45 
   38000    301.54136   -97.037044    458448.15    -144985.6    26514.808    24362.976    553778.57   -145012.33 
   38250    299.29919    -40.47823    459222.58   -144902.92    26317.652    24556.263    553681.18   -144929.93 
   38500    300.59039     9.345398    459270.06   -144433.96    26431.188    24398.816    554300.53   -144458.33 
   38750    302.01302    88.396548    459934.65   -144593.29    26556.281    24688.402    553860.85   -144614.42 
   39000    300.09916   -72.054994    461427.79   -144994.57    26387.994    24656.836    553465.49   -145029.23 
   39250    296.69491   -44.480287    460930.24   -144892.87    26088.655    24643.268    553629.87   -144915.85 
   39500     302.2024    -93.08211    459391.03   -145198.45    26572.933    24523.482    553435.67   -145226.23 
   39750    299.57718   -49.582995    457566.67   -145322.11    26342.096    24573.399    553261.13   -145351.16 
   40000    299.09248   -110.38119     459874.8   -144730.21    26299.475    24384.634    554011.68   -144760.35 
   40250    299.38036   -112.14085    459571.45   -145041.82     26324.79    24547.351     553550.6   -145069.62 
   40500    300.59037    281.52846    457698.74   -144991.58    26431.186    25100.943    553059.59    -145020.6 
   40750     300.8306     169.1379    458429.08   -144841.83     26452.31    24905.837    553391.74   -144868.85 
   41000    299.23774    151.93372    459210.12   -144771.31    26312.248    24869.892    553481.03   -144796.66 
   41250     299.7062   -12.355673    459507.41   -145082.73     26353.44     24704.47     553350.3   -145111.91 
   41500    302.03129   -21.029748    459664.19   -145069.72    26557.888    24657.117    553404.33   -145093.67 
   41750    299.96948   -88.304272    459808.34   -144816.26    26376.591    24480.457    553847.49   -144840.35 
   42000    301.03125    11.815581    459066.01   -145134.31    26469.953    24706.565    553306.58   -145156.68 
   42250    301.27746    -40.98361    457620.15   -145019.03    26491.603    24482.488    553637.74   -145041.61 
   42500    299.66561    15.681727    460227.53   -145132.71    26349.871    24784.599     553230.5   -145156.27 
   42750    298.51066  -0.79899673    462325.79   -144822.73    26248.316     24803.88    553525.01   -144840.08 
   43000    300.25279    67.826074    459275.31   -145143.73    26401.503    24850.985    553148.18   -145170.27 
   43250    300.46566   -2.6921647    460280.26   -144773.43    26420.221    24660.223    553681.13   -144803.72 
   43500    301.79843   -37.308601    458524.92   -145100.58    26537.412    24527.355    553503.07   -145129.39 
   43750    301.07951    54.219814    459637.87   -144945.01    26474.197    24827.979    553363.71   -144974.88 
   44000    300.38359    55.667106    459384.22   -144812.45    26413.004    24719.693    553620.53   -144838.55 
   44250    299.63359    45.803087    458363.51   -145010.83    26347.056    24826.604    553308.43   -145039.21 
   44500     300.8876    54.796547    459891.32   -145219.03    26457.322    24913.218    553030.71    -145240.7 
   44750    297.00516  -0.64605448    459795.95   -144832.49    26115.935    24732.965     553585.1   -144860.65 
   45000    300.50851   -12.595634    459067.28   -145166.93    26423.988    24663.793     553320.5   -145190.52 
   45250    298.06091    -65.84775    461265.63   -144909.05    26208.769    24645.004    553591.42   -144930.33 
   45500    301.27503    39.347585    459329.23   -145108.56     26491.39    24752.011    553285.62   -145129.65 
   45750    299.68756   -102.40581    461139.84   -144842.47    26351.801    24510.002    553786.65   -144866.13 
   46000    301.51425   -91.051933    461710.19   -144853.35    26512.424    24597.924    553687.63   -144880.68 
   46250    299.14762    48.317298    461137.23   -144734.45    26304.324    24804.031     553579.7   -144760.79 
   46500    298.93725    -13.61429    459881.53   -145042.86    26285.826     24707.81    553388.72   -145067.82 
   46750    299.35202    34.649573    458635.23   -145320.63    26322.297    24776.393    553038.55   -145347.07 
   47000    297.41136    -232.8201    460165.67   -145336.08    26151.653    24436.417    553375.59   -145363.01 
   47250    299.46379    11.230683    460288.55   -145028.03    26332.125    24786.113    553312.29    -145062.5 
   47500    300.26959    281.64953    458767.62   -144939.82     26402.98    25155.663    553054.67   -144963.31 
   47750    302.42513     -7.45893    459307.22   -144946.07    26592.519     24733.95    553446.72   -144973.95 
   48000    299.93082    -66.44118     459901.4   -145228.17    26373.192    24695.609    553216.62   -145255.43 
   48250    299.17553   -31.096377    458623.13   -145153.39    26306.778    24707.479    553274.53   -145178.77 
   48500    300.62915   -107.15318    458733.64   -145206.62    26434.596    24535.554    553400.89   -145229.46 
   48750    300.58492   -124.67106    459918.15   -144723.48    26430.708    24324.038    554084.54   -144748.59 
   49000    299.61488   -201.16269    460364.06   -144598.84     26345.41    24138.896    554391.44   -144627.69 
   49250    298.75431   -8.2754332    459243.82   -145202.46     26269.74    24724.289     553220.3   -145227.91 
   49500    301.38084    80.402414    458131.86   -144995.43    26500.693    24803.889    553348.93   -145020.65 
   49750    300.93643     19.13728    459982.34   -144862.46    26461.616    24673.521    553607.41   -144890.01 
   50000    299.94702    221.62651    459382.52   -145141.99    26374.616    25158.057    552838.69   -145164.93 
   50250    299.41288   -3.1647571    458986.94   -145018.55    26327.649    24650.161    553496.96    -145038.9 
   50500    298.47512   -31.748195    460339.54   -144771.84     26245.19    24602.012    553789.36   -144792.16 
   50750    299.15539    92.980322    457897.08   -144928.05    26305.008    24757.862    553454.63   -144952.76 
   51000    302.06674   -181.15313    460404.15   -144794.28    26561.005    24329.215    554036.31    -144821.8 
   51250    299.36694   -15.238693    459608.03   -144935.02    26323.609    24654.512    553570.96   -144959.91 
   51500    299.26003    21.007347     459894.2   -144672.33    26314.209    24636.351    553827.27   -144695.73 
   51750     300.2458    -32.06883    460508.14   -144748.12    26400.888    24553.392    553833.67   -144775.08 
   52000    299.52805   -122.87811    460868.67   -144829.86    26337.776     24497.21    553799.56   -144860.77 
   52250    299.38585    119.63326    460414.43   -144808.22    26325.272    24987.758    553335.86   -144833.11 
   52500    300.25164    113.17502    458569.45   -145079.87    26401.402    24861.912    553192.58   -145110.56 
   52750    302.23045   -19.487039    460595.31   -144969.39      26575.4    24648.789    553512.34   -144992.15 
   53000    298.85355   -67.364875    462812.76    -144739.3    26278.466    24663.728    553742.94   -144761.36 
   53250      299.625    -88.68053    459930.49   -144955.73    26346.301    24465.347    553724.19   -144975.09 
   53500     297.9814    184.93544    458408.36   -145149.96    26201.778     25008.66    552985.68   -145172.64 
   53750    299.78574   -22.298314    459292.88   -144733.36    26360.435    24458.177    553950.64   -144755.74 
   54000    302.14098   -31.287567    461133.52   -144505.29    26567.533    24464.187    554178.48   -144530.05 
   54250    301.33329    4.3031302    458908.55   -145246.16    26496.512    24777.461    553133.29   -145271.47 
   54500     301.4009    69.029597    459335.97   -144943.07    26502.457    24805.858    553383.69   -144968.75 
   54750    299.98337    35.781038    460500.62   -144950.65    26377.812    24782.329    553422.83   -144974.14 
   55000    302.12454   -129.31972    460180.56   -144973.69    26566.087    24459.523     553706.1   -144997.47 
   55250    300.68224    101.63586    459633.23   -145040.08    26439.265    24882.035    553198.24   -145065.75 
   55500    301.74766   -86.143957    460446.02   -145271.03    26532.948    24641.742    553236.73   -145295.07 
   55750    296.74729   -108.17351    460929.72   -144988.06    26093.261    24576.058    553581.69   -145010.24 
   56000    300.35156    -139.0556    461718.71   -144662.08    26410.188    24417.547    554066.25   -144686.92 
   56250    300.90472    130.62977    459191.86   -144921.84    26458.827    24816.414    553422.63   -144945.84 
   56500    299.85808    13.390003    457995.54   -144694.54    26366.795    24503.022    553939.88   -144718.08 
   56750    299.84698   -167.76301    458690.77   -144766.42     26365.82    24209.046    554159.55   -144791.75 
   57000     298.5806    20.979371    456874.86   -144766.64    26254.466    24385.029    554006.46   -144790.58 
   57250    300.89523   -10.621881    458824.49   -145022.96    26457.993    24650.838    553480.85   -145044.82 
   57500    299.10784    217.64278    457646.27   -144865.86    26300.826     24950.27    553302.71   -144893.75 
   57750    301.62457    115.77355    458440.83   -144957.66    26522.125    24786.424     553383.2   -144981.37 
   58000    300.46286    34.840905    459154.18   -144969.38    26419.974    24794.879    553380.88   -144997.13 
   58250    300.37351   -48.809571    459525.74   -144902.07    26412.117        24583    553652.55   -144928.53 
   58500    300.18842   -3.6906941    459506.95      -145044    26395.843    24706.243     553381.4    -145069.1 
   58750    301.40598    96.804685    459751.29    -144570.3    26502.904    24726.663    553840.72   -144601.53 
   59000    299.69893    26.582211    459283.76   -144784.62    26352.801     24638.77    553723.68   -144816.52 
   59250    300.79804    151.56759    457564.59   -144960.83    26449.447    24793.597    553374.05   -144991.28 
   59500    299.88035    8.4548838    459010.27   -144981.93    26368.754    24717.568    553430.46   -145013.88 
   59750    300.18046   -66.468696    460208.43   -144743.49    26395.143    24514.871    553892.25   -144771.93 
   60000    299.86004    13.827697    459060.28   -145034.54    26366.968    24714.877    553390.08    -145067.6 
   60250    298.20309    67.331453    460193.24   -144951.21    26221.271    24912.166     553266.7   -144977.38 
   60500    298.38932   -89.187823    461429.93   -145025.44    26237.646    24676.559    553413.49   -145056.74 
   60750    301.98176    117.20863    458630.23   -144920.94    26553.533    24749.366    553468.03   -144948.39 
   61000    298.55333    46.135932    459405.44   -144877.01    26252.068    24747.104    553518.83   -144904.67 
   61250    298.15173    12.103436    459994.51   -145105.88    26216.755    24795.972    553228.17   -145135.63 
   61500    299.48222    57.723371    460537.61   -144726.58    26333.746    24744.355    553665.23   -144752.86 
   61750    300.60915    70.984534    459768.16   -144777.88    26432.837    24716.167     553639.1    -144802.1 
   62000    298.89322    60.748841    459143.56   -144837.28    26281.955    24710.355    553603.17   -144862.29 
   62250    300.44856    -210.9771    460710.77   -144756.77    26418.717     24249.95    554124.54    -144789.2 
   62500    300.44687    26.556498    459492.62   -144890.39    26418.568    24675.649    553582.88   -144916.77 
   62750    303.22718    128.85207     460434.8   -145154.36    26663.043    25078.377    552906.73   -145181.49 
   63000    300.50272    69.856055    460145.18   -144927.58    26423.479    24845.781    553371.95      -144954 
   63250    299.57544    81.936712    459573.79   -145237.24    26341.943    24966.272    552946.88      -145261 
   63500    297.31365   -136.94732    457723.62   -145110.54    26143.062    24333.459    553698.54   -145133.62 
   63750    300.29718    114.01922    458578.55   -144917.24    26405.406    24796.928    553422.45   -144943.72 
   64000    302.61919   -28.457371    459526.33   -144612.35    26609.583    24446.287    554072.96   -144638.96 
   64250    300.50641    2.7028906    460022.29   -145071.82    26423.804    24766.302    553305.63    -145098.3 
   64500     300.6219    67.336556    459500.48   -144835.48    26433.959    24729.216    553577.36   -144859.85 
   64750    299.42871    110.56728    459849.87   -145117.86     26329.04    24881.954     553144.7    -145146.2 
   65000    300.84724     149.7539    460019.23   -144798.27    26453.773    24961.851    553375.27   -144821.56 
   65250    302.03374    35.165956    460160.95   -144928.26    26558.104    24793.882    553405.27   -144955.43 
Loop time of 29624.8 on 1 procs (1 MPI x 1 OpenMP) for 65250 steps with 44200 atoms

Pair  time (%) = 21178 (71.4873)
Bond  time (%) = 0.606537 (0.00204739)
Kspce time (%) = 2491.06 (8.40871)
Neigh time (%) = 3622.94 (12.2294)
Comm  time (%) = 70.1775 (0.236888)
Outpt time (%) = 1.02779 (0.00346934)
Other time (%) = 2261.02 (7.63219)

FFT time (% of Kspce) = 661.357 (26.5492)
FFT Gflps 3d (1d only) = 1.61064 2.54019

Nlocal:    44200 ave 44200 max 44200 min
Histogram: 1 0 0 0 0 0 0 0 0 0
Nghost:    70123 ave 70123 max 70123 min
Histogram: 1 0 0 0 0 0 0 0 0 0
Neighs:    1.46037e+07 ave 1.46037e+07 max 1.46037e+07 min
Histogram: 1 0 0 0 0 0 0 0 0 0

Total # of neighbors = 14603685
Ave neighs/atom = 330.4
Ave special neighs/atom = 2.00851
Neighbor list builds = 7167
Dangerous builds = 6425
write_restart   confout-0.data
PPPM initialization ...
  G vector (1/distance) = 0.263205
  grid = 90 25 25
  stencil order = 5
  estimated absolute RMS force accuracy = 0.0402261
  estimated relative force accuracy = 0.00012114
  using double precision FFTs
  3d grid and FFT values/proc = 97280 56250
