LAMMPS (24 Apr 2013)
WARNING: OMP_NUM_THREADS environment is not set. (../comm.cpp:100)
  using 1 OpenMP thread(s) per MPI task
# ----------------- Init Section -------------------------------------------------------
units           real
atom_style      full
boundary	p p p
pair_style	lj/cut/coul/long 9.8 9.8
pair_modify     mix arithmetic
kspace_style	pppm 1.0e-4
bond_style      harmonic
angle_style     harmonic
dihedral_style  none
improper_style  none

# ----------------- Atom Definition Section --------------------------------------------
read_data "cg50-2.data"
  2 = max bonds/atom
  1 = max angles/atom
  orthogonal box = (0 0 0) to (263 50 50)
  1 by 1 by 1 MPI processor grid
  44200 atoms
  29498 bonds
  14700 angles
  2 = max # of 1-2 neighbors
  2 = max # of 1-3 neighbors
  4 = max # of 1-4 neighbors
  6 = max # of special neighbors

# ----------------- Settings Section ---------------------------------------------------
# Bond parameters
#           bond-type   k      	r0
# Water
bond_coeff   	1  	200.0   1.0
angle_coeff  	1 	200.0   109.47
# CG25
bond_coeff  	2       72.54   2.5

# LJ Interactions
#             atom1   atom2	epsilon	sigma
pair_coeff   	1 	1 	0.1553  3.166
pair_coeff   	1 	2 	0.0     0.0
pair_coeff 	1 	3 	0.1777 	3.783
pair_coeff   	2 	2 	0.0     0.0
pair_coeff   	2 	3 	0.0     0.0
pair_coeff 	3 	3 	0.2032	4.4

group spc type	1 2
44100 atoms in group spc

# ----------------- Minimize -----------------------------------------------------------
# command  	etol    ftol   maxiter  maxeval
minimize	1.0e-4	1.0e-6	100	1000
WARNING: Resetting reneighboring criteria during minimization (../min.cpp:173)
PPPM initialization ...
  G vector (1/distance) = 0.260523
  grid = 100 27 27
  stencil order = 5
  estimated absolute RMS force accuracy = 0.0385118
  estimated relative force accuracy = 0.000115977
  using double precision FFTs
  3d grid and FFT values/proc = 121380 72900
Memory usage per processor = 103.432 Mbytes
Step Temp E_pair E_mol TotEng Press 
       0            0   -61738.728    1358132.2    1296393.5    13145.175 
     100            0   -95654.946    4517.9283   -91137.017     -9383.68 
Loop time of 59.7188 on 1 procs (1 MPI x 1 OpenMP) for 100 steps with 44200 atoms

Minimization stats:
  Stopping criterion = max iterations
  Energy initial, next-to-last, final = 
         1296393.49911      -89433.618476     -91137.0174484
  Force two-norm initial, final = 62879.9 684.445
  Force max component initial, final = 3297.3 38.5905
  Final line search alpha, max atom move = 0.00206156 0.0795568
  Iterations, force evaluations = 100 170

Pair  time (%) = 51.3564 (85.997)
Bond  time (%) = 0.419716 (0.702821)
Kspce time (%) = 6.30327 (10.5549)
Neigh time (%) = 1.29939 (2.17584)
Comm  time (%) = 0.0996692 (0.166898)
Outpt time (%) = 0.000256062 (0.000428779)
Other time (%) = 0.240124 (0.402092)

FFT time (% of Kspce) = 1.0169 (16.133)
FFT Gflps 3d (1d only) = 1.60536 2.54024

Nlocal:    44200 ave 44200 max 44200 min
Histogram: 1 0 0 0 0 0 0 0 0 0
Nghost:    54901 ave 54901 max 54901 min
Histogram: 1 0 0 0 0 0 0 0 0 0
Neighs:    1.03918e+07 ave 1.03918e+07 max 1.03918e+07 min
Histogram: 1 0 0 0 0 0 0 0 0 0

Total # of neighbors = 10391807
Ave neighs/atom = 235.109
Ave special neighs/atom = 2.00851
Neighbor list builds = 4
Dangerous builds = 0

# ----------------- Run it --------------------------------------------------------------
# Write initial structure out
dump            icrd all custom 5 system.lammpstrj id mol type x y z ix iy iz
dump_modify     icrd sort id
run             1
WARNING: No fixes defined, atoms won't move (../verlet.cpp:54)
PPPM initialization ...
  G vector (1/distance) = 0.260523
  grid = 100 27 27
  stencil order = 5
  estimated absolute RMS force accuracy = 0.0385118
  estimated relative force accuracy = 0.000115977
  using double precision FFTs
  3d grid and FFT values/proc = 121380 72900
Memory usage per processor = 104.443 Mbytes
Step Temp E_pair E_mol TotEng Press 
     100            0   -95654.946    4517.9283   -91137.017     -9383.68 
     101            0   -95654.946    4517.9283   -91137.017     -9383.68 
Loop time of 0.352203 on 1 procs (1 MPI x 1 OpenMP) for 1 steps with 44200 atoms

Pair  time (%) = 0.310506 (88.1611)
Bond  time (%) = 0.00291204 (0.826809)
Kspce time (%) = 0.0376849 (10.6998)
Neigh time (%) = 0 (0)
Comm  time (%) = 0.000650167 (0.1846)
Outpt time (%) = 0.000248909 (0.070672)
Other time (%) = 0.000200987 (0.0570656)

FFT time (% of Kspce) = 0.0101879 (27.0345)
FFT Gflps 3d (1d only) = 1.60239 2.53857

Nlocal:    44200 ave 44200 max 44200 min
Histogram: 1 0 0 0 0 0 0 0 0 0
Nghost:    55133 ave 55133 max 55133 min
Histogram: 1 0 0 0 0 0 0 0 0 0
Neighs:    1.03778e+07 ave 1.03778e+07 max 1.03778e+07 min
Histogram: 1 0 0 0 0 0 0 0 0 0

Total # of neighbors = 10377829
Ave neighs/atom = 234.793
Ave special neighs/atom = 2.00851
Neighbor list builds = 0
Dangerous builds = 0

# Reset the timestep
undump          icrd
reset_timestep  0

# Timestep and Neighbour searching
timestep	2.0
neighbor        2.0 bin
neigh_modify	delay 9 every 1 check yes

# Fixes
fix 		shake spc shake 0.0001 10 0 b 1 a 1
  0 = # of size 2 clusters
  0 = # of size 3 clusters
  0 = # of size 4 clusters
  14700 = # of frozen angles
fix   		npt all npt temp 300.0 300.0 100.0 iso 1.0 1.0 1000.0

# Initial velocity
#velocity	all create 300 432567 dist uniform

# Write out thermodynamic information
thermo_style    custom step temp press vol pe ke evdwl ecoul epair
thermo	        250

# Write out trajectory
dump            cxtc all xtc 250 traj-0.xtc

# Write out velocity
#dump 		1 all custom 1 vel_npt.txt vx vy vz

# Final run command
run             100000
PPPM initialization ...
  G vector (1/distance) = 0.260523
  grid = 100 27 27
  stencil order = 5
  estimated absolute RMS force accuracy = 0.0385118
  estimated relative force accuracy = 0.000115977
  using double precision FFTs
  3d grid and FFT values/proc = 121380 72900
Memory usage per processor = 104.877 Mbytes
Step Temp Press Volume PotEng KinEng E_vdwl E_coul E_pair 
       0            0   -33269.962       657500   -95650.521            0   -5928.7369    631245.67   -95654.946 
     250    331.88517   -229.13095    631709.97   -127689.45    29182.967    21146.202     573904.5   -127693.01 
     500    300.08576   -518.10017    621858.17    -135331.3    26386.816    23036.963    564481.35   -135334.76 
     750    300.49967   -447.22201       609155   -137436.72    26423.211    23791.601    561664.53   -137441.86 
    1000    299.11754   -685.11974    596181.94   -137989.65    26301.679    23247.266    561677.82   -137995.74 
    1250    298.46919    -444.6697    584286.43   -139113.58    26244.669    24059.987    559765.29   -139120.15 
    1500     300.1972   -405.41278    572854.34    -139943.2    26396.615    24189.456    558846.55   -139950.28 
    1750     298.3737   -345.49104    563130.29   -140305.86    26236.273    24311.122    558365.49   -140315.86 
    2000    299.64055   -318.69994    554243.27   -140911.16    26347.668     24399.29     557713.9    -140919.6 
    2250     300.6118   -397.92033    546453.32   -141293.28     26433.07    24258.278    557462.21   -141302.23 
    2500    302.66282    -370.3963    537397.63   -141544.63    26613.419    24257.655    557226.71   -141555.39 
    2750    301.49381   -515.76882    528890.46   -141996.84    26510.627    24043.401    557016.04    -142009.2 
    3000    299.58506   -343.82793    521290.09   -141887.62    26342.789    24283.658    556874.57   -141899.65 
    3250    299.85037   -302.23775    513407.79    -142349.9    26366.118    24404.297    556311.87   -142363.18 
    3500    299.15483   -311.62655    506797.64   -142697.23    26304.958     24382.73    556004.55   -142709.36 
    3750    300.06547   -284.11526    501307.19   -142964.45    26385.032    24345.377    555783.81   -142980.43 
    4000    299.78007   -208.20008    495269.58   -142968.37    26359.936    24413.114     555695.3   -142987.09 
    4250    297.23635   -230.39126    490008.14   -143166.57    26136.264    24402.511    555529.58   -143182.11 
    4500    298.61418   -265.21222    484827.05   -143787.19    26257.418    24428.338     554892.1    -143803.6 
    4750    296.44909   -250.33309    480974.41   -143655.64     26067.04    24385.566    555097.49   -143672.62 
    5000    299.73236   -45.777478     477399.6   -144123.79    26355.741    24820.315     554174.1   -144140.82 
    5250    300.33342   -112.76672    474154.03   -144120.28    26408.592    24562.061    554453.49   -144138.62 
    5500     298.7205   -41.757447    470882.87   -144346.14    26266.767    24675.803    554101.04   -144365.93 
    5750    298.68172   -66.312647    467948.99   -144358.16    26263.357    24575.071    554210.01   -144378.55 
    6000    301.13671   -97.937783    466641.03    -144430.7    26479.227    24462.419    554223.88   -144452.03 
    6250    300.28204    166.95169    464823.27   -144672.61    26404.075    25042.629    553440.01   -144690.44 
    6500    297.31846   -55.678001    463445.75   -144964.85    26143.484    24727.793    553446.75   -144986.44 
    6750    299.67006   -132.57336     463195.4   -144945.73    26350.263    24529.064    553670.23   -144968.89 
    7000    296.94599   -94.245865    462641.42   -144912.09    26110.733    24549.261    553689.17   -144933.21 
    7250    298.87197   -37.742803    462931.59    -144905.3    26280.086    24775.866     553473.3   -144925.84 
    7500    298.86707   -90.264817    462030.03   -144804.72    26279.655    24540.898    553784.68   -144831.23 
    7750    302.85876    45.123119    459699.99    -145307.5    26630.648    24893.817    552941.05   -145330.52 
    8000    296.45478    84.958575    460380.62   -144823.83     26067.54    24839.327    553482.57   -144850.85 
    8250    299.24371     56.98134    460354.92   -145218.15    26312.773    24985.793    552938.81   -145243.34 
    8500    300.69097   -74.000982    460756.05   -144729.82    26440.033    24452.118    553957.76   -144754.43 
    8750    299.70392   -39.329345     460633.9   -144953.46     26353.24    24647.355    553528.84   -144975.07 
    9000    298.30385    66.651749    459979.69   -144744.85    26230.131    24836.956    553569.67   -144771.06 
    9250    299.94391   -44.613655    459367.83   -144786.39    26374.343    24550.216    553815.25    -144808.1 
    9500    298.17376   -56.766389    457161.14   -145157.78    26218.692    24455.918    553538.71   -145182.01 
    9750    299.75826    76.352043     457837.6   -144876.52    26358.018    24645.493     553617.4   -144903.24 
   10000    300.12133   -99.915019    458956.73   -145329.81    26389.944    24628.992     553189.4   -145354.78 
   10250    301.36089   -97.626591    458299.82   -144983.74    26498.939    24436.553    553717.17   -145012.51 
   10500    298.62072   -21.575403    458619.84   -145183.41    26257.994    24651.094    553302.88   -145209.81 
   10750    301.92907   -10.519889    461239.51   -145179.26      26548.9     24873.94    553092.77   -145202.35 
   11000    299.33371    153.89964    461010.36   -145080.36    26320.688    25107.737    552961.09   -145104.23 
   11250     301.5709   -46.009616    459808.29   -145166.04    26517.406    24691.621    553282.56   -145192.62 
   11500    298.81718    -101.0633    460043.21   -145032.64    26275.268    24477.143    553626.29   -145056.41 
   11750    299.12789   -113.78506    461500.56   -145104.41    26302.589    24666.374    553377.45   -145130.22 
   12000    300.66605   -25.908587    460800.52   -145141.84    26437.841    24757.829    553239.68   -145167.06 
   12250    299.74722    47.622944    461784.39   -144642.21    26357.047    24820.738     553685.7   -144661.55 
   12500    302.50021    170.03787    460679.01   -144927.32    26599.121    25060.276    553139.21   -144952.81 
   12750    299.95198   -102.44497    461111.16   -145045.73    26375.052    24554.064    553532.31   -145075.12 
   13000    299.57045     91.79786     460663.2   -144908.42    26341.504    24961.421    553283.69   -144928.95 
   13250    302.60351   -30.454816    460663.93   -144828.78    26608.204    24645.676    553657.25   -144858.97 
   13500    302.41745    44.820364    459689.02   -144695.21    26591.843    24656.817    553781.92   -144729.64 
   13750    299.88805   -2.8337848    459310.69   -144900.79     26369.43    24558.187    553699.05   -144923.72 
   14000    300.24113    24.035163    459760.49   -145098.39    26400.478    24860.463    553184.09   -145122.21 
   14250    298.33767   -149.65579    459420.07   -144991.43    26233.105      24308.4    553843.14   -145024.09 
   14500    300.06188    91.070763    458462.34    -145200.9    26384.716    24913.974    553044.51   -145232.57 
   14750    300.17428   -5.0722422    458142.15   -144919.01    26394.599    24584.332    553634.52   -144949.61 
   15000    299.79024   -109.19962    460963.25   -144574.43     26360.83    24338.093    554219.49   -144607.66 
   15250    300.96235    53.493994    459078.23   -145132.19    26463.895    24751.701    553240.31   -145162.13 
   15500    300.40507   -214.91997    460680.03   -144759.29    26414.893    24286.671    554077.18      -144788 
   15750      299.033   -130.60465     461824.1   -144885.92    26294.246    24520.543    553721.37   -144909.87 
   16000    297.68681    74.900431    459712.77   -145339.21    26175.873     24983.01    552809.86   -145369.01 
   16250    299.08707    198.33142    457599.78   -145016.01        26299    24966.577    553160.75   -145042.52 
   16500    297.27554    13.340256    457724.29   -145118.34     26139.71    24676.198     553334.9    -145143.1 
   16750    298.67655    10.343298    458865.52    -145082.1    26262.902    24698.166    553373.37   -145104.83 
   17000    300.35258   -74.107579    460882.72   -144672.65    26410.277    24491.541    553960.69    -144696.3 
   17250     301.4853    134.32075    459769.91   -144723.76    26509.878    24871.132    553550.12   -144749.86 
   17500    297.93411   -195.57227     460324.5   -145295.09    26197.619     24481.86    553383.38    -145315.1 
   17750    301.39631   -188.81381    460938.43   -144980.15    26502.054    24421.973    553734.08   -145008.48 
   18000     300.0657    43.237836    459750.46   -144943.74    26385.051    24816.811    553376.42   -144969.48 
   18250    299.71941   -142.56425    458842.82   -145169.39    26354.602    24484.231     553494.9   -145197.44 
   18500     300.0957   -121.40046    460399.07   -144670.64     26387.69    24330.954    554136.52   -144697.72 
   18750    301.81818   -64.631258    459996.59   -144776.29    26539.149    24435.817    553944.25   -144796.09 
   19000    301.12774    150.07002    458317.41   -145033.89    26478.438    24940.401     553156.9   -145060.45 
   19250    301.22801   -58.632505    460559.53   -144988.82    26487.255     24670.02    553501.62   -145008.51 
   19500    297.91398   -26.919085    460319.17   -144671.74    26195.849    24637.396    553833.09   -144700.01 
   19750    300.37501   -41.173653    458744.01   -145184.67    26412.249    24668.472    553278.78   -145210.78 
   20000    298.67141     51.29188    458893.98   -144887.35    26262.451    24695.863    553551.44   -144918.16 
   20250    299.98325    -129.0392    458421.14   -145344.97    26377.802    24502.584     553288.3   -145373.18 
   20500    298.15599    158.90056    458161.08   -144980.67    26217.129    24953.845    553235.92   -145005.85 
   20750    300.37061   -260.42282    460819.92   -144909.44    26411.863    24243.081    553995.25   -144936.45 
   21000    300.76658    64.056886    460476.04   -144999.26    26446.681    24831.056    553297.44   -145037.06 
   21250    300.00497     104.3941    458663.07   -144918.93    26379.712    24798.628    553411.02   -144948.93 
   21500    301.84564    217.56883    458492.82   -145074.36    26541.564    25096.404    552975.29   -145097.72 
   21750    303.03753   -24.223069    460311.89   -144903.89    26646.367    24631.622    553595.09   -144936.71 
   22000    301.36197    55.818712    458869.83   -144921.34    26499.034    24702.847    553522.26   -144949.86 
   22250    301.25735   -129.62897     459900.5   -145082.39    26489.834     24466.34    553573.96   -145114.52 
   22500    298.86053   -150.28972    461120.11   -144874.74     26279.08    24416.502    553860.33   -144894.21 
   22750     295.4091   -30.639905    461177.29   -144745.81    25975.593    24631.355    553748.85   -144774.61 
   23000    297.99924   -126.69217     460691.2   -144953.33    26203.346    24468.969    553716.27   -144981.59 
   23250    299.88336   -138.19324    460401.85   -144932.36    26369.019    24446.206    553769.13   -144960.33 
   23500    300.46143     277.5391     457846.4   -145147.95    26419.849    25198.199     552786.6   -145184.63 
   23750    300.64808   -178.37959    460575.48   -144655.64    26436.261    24244.874    554226.93   -144681.34 
   24000    301.28337    195.17042    459138.03   -144769.69    26492.122    24954.482    553423.52   -144793.35 
   24250    299.49637   -59.108519    459186.62   -145094.59     26334.99    24550.249    553510.67   -145122.23 
   24500    300.46612    55.748631    457548.75    -144995.4    26420.261    24672.083    553465.78   -145021.66 
   24750    300.63134   -149.43821    459347.97   -145052.53    26434.789    24339.681    553749.82   -145077.16 
   25000    299.02361     -103.088    460344.62   -144952.13     26293.42    24433.448    553769.98   -144980.53 
   25250    298.98458   -40.210675    460810.31    -145001.3    26289.988    24696.224    553434.05   -145036.46 
   25500    299.83999   -121.48437    461252.45    -144817.4    26365.204    24477.894    553839.37   -144842.64 
   25750    299.23478    168.67282    460210.92   -144863.23    26311.989     25029.16     553238.5   -144893.21 
   26000    301.91541   -16.797456    460524.82   -144755.09    26547.698    24562.978    553838.56   -144783.66 
   26250    298.42277   -96.686183    458467.32   -145033.68    26240.587    24413.086    553687.69   -145062.63 
   26500    301.97474   -20.212416    460821.73   -144962.25    26552.915    24668.703    553497.21   -144991.65 
   26750     301.7195    53.664117    461677.38   -144984.43    26530.472    24960.384     553197.3   -145009.66 
   27000    302.01958    92.992402    460835.03   -145028.94    26556.858     24978.77    553108.63   -145053.95 
   27250    299.72929    89.615652    460859.66   -144714.73    26355.471    24819.967    553592.49   -144744.71 
   27500    301.82413     17.77861    460693.26   -144980.85    26539.672    24774.872    553381.98   -145009.76 
   27750    299.12666    108.00426    460001.82   -144736.33    26302.481    24871.316    553535.62   -144768.45 
   28000    298.15316   -5.0040232    460664.95   -144641.45    26216.881    24598.144    553891.86   -144671.56 
   28250    300.58938    64.946909    459150.22   -144789.94    26431.099    24738.555     553623.6   -144826.52 
   28500    300.36328   -14.243161    459496.98   -145005.11    26411.218    24714.991    553417.04   -145038.58 
   28750    300.28219    90.173301     458268.6   -145319.42    26404.088    24878.451    552925.13   -145353.64 
   29000    301.61197   -99.814924    460486.14   -145112.97    26521.016    24643.769    553382.37   -145144.59 
   29250     297.9851    13.617478    460159.21   -145326.39    26202.102    24910.498    552917.22   -145354.17 
   29500    298.94952   -48.081661    461549.47   -144951.29    26286.905    24693.305    553483.13   -144975.59 
   29750    300.24194   -185.16655    462535.16   -144942.61    26400.549    24470.713    553722.74    -144959.8 
   30000    301.00454   -6.8164987    459049.52    -145261.5    26467.605    24727.814    553156.25   -145287.26 
   30250    299.23972    76.847439    458963.31   -144889.37    26312.422    24742.106     553496.8   -144915.09 
   30500    299.25007     85.19176    457765.47   -144747.45    26313.333    24662.313    553734.86   -144774.08 
   30750    299.52299    79.804175    458284.38   -144667.88    26337.331    24649.453    553830.04   -144694.51 
   31000    298.77679   -79.087401    460609.01   -144512.07    26271.716    24394.336    554228.44   -144535.59 
   31250    300.31698     71.36575    459201.21   -145081.41    26407.147    24834.751    553231.83   -145107.77 
   31500    300.56988    90.227031    459455.43   -145042.34    26429.385    24866.087    553229.16   -145065.55 
   31750    299.86671    59.546191    458758.32   -145235.77    26367.555    24870.253    553056.39   -145266.84 
   32000    297.37047   -120.29049    458628.21   -145054.27    26148.057    24460.446    553628.06   -145076.65 
   32250    298.99318    -126.7699    459425.34   -144845.66    26290.744    24375.041    553908.85    -144870.4 
   32500    299.13552    6.6352683     459470.6   -144738.03     26303.26    24616.762    553797.97   -144760.71 
   32750    302.88082    72.685564    459491.66   -144864.73    26632.588    24685.082    553591.56   -144894.76 
   33000    297.48171    124.01725    458718.99   -145094.38    26157.839    24992.372    553066.57    -145121.2 
   33250     297.4331   -137.30859    460208.97   -144897.53    26153.565    24379.155    553851.39   -144924.08 
   33500    299.29004   -14.495832    459776.26   -145062.35    26316.847    24628.157    553452.66   -145096.25 
   33750    300.13905   -133.69946    459558.52   -144976.49    26391.501    24407.031    553758.75   -145009.01 
   34000     302.0508   -201.39908    460438.27   -144813.33    26559.603    24224.177    554101.49    -144843.2 
   34250    300.04116   -4.9556793    461531.61   -144906.82    26382.894    24736.902    553507.48   -144933.13 
   34500    300.81093   -291.20505    461451.14   -144917.01    26450.581    24182.644    554035.47      -144947 
   34750    300.42735    86.798748    460665.81   -145030.75    26416.852    24973.202    553143.11   -145059.47 
   35000    300.57401    18.697383    460435.44   -144727.01    26429.748    24609.277     553799.7   -144751.71 
   35250    297.73662   -31.347137    460579.78   -144769.09    26180.254    24607.787    553760.87    -144796.9 
   35500    299.21691   -268.99561    461099.92    -145037.3    26310.417    24264.848    553844.36   -145061.65 
   35750    302.11014    137.28107    460197.91   -144891.14    26564.821    24945.911     553309.6   -144916.54 
   36000    300.73787   -2.3901292     460597.9   -144911.61    26444.156    24710.715    553528.86   -144939.35 
   36250     300.6805   -18.439035    459538.89    -145087.8    26439.111    24609.793    553449.75   -145115.23 
   36500    300.42428    55.473685    458860.35   -145119.15    26416.582     24830.83    553191.73   -145145.61 
   36750    300.85129    5.3872436    459211.85   -144938.49    26454.129    24620.184    553579.18   -144965.71 
   37000     302.7812    44.449775    460478.81   -144965.08    26623.828    24767.882    553396.93   -144991.51 
   37250    300.13162    50.106637    462059.43   -144656.43    26390.848    24774.159    553707.56   -144683.45 
   37500    300.18757    105.12726    460044.88   -144870.75    26395.768     24894.06    553392.03   -144891.96 
   37750    301.80615    66.210924    458584.84   -144932.26    26538.091    24691.217    553491.04   -144959.45 
   38000    301.54136   -97.037044    458448.15    -144985.6    26514.808    24362.976    553778.57   -145012.33 
   38250    299.29919    -40.47823    459222.58   -144902.92    26317.652    24556.263    553681.18   -144929.93 
   38500    300.59039     9.345398    459270.06   -144433.96    26431.188    24398.816    554300.53   -144458.33 
   38750    302.01302    88.396548    459934.65   -144593.29    26556.281    24688.402    553860.85   -144614.42 
   39000    300.09916   -72.054994    461427.79   -144994.57    26387.994    24656.836    553465.49   -145029.23 
   39250    296.69491   -44.480287    460930.24   -144892.87    26088.655    24643.268    553629.87   -144915.85 
   39500     302.2024    -93.08211    459391.03   -145198.45    26572.933    24523.482    553435.67   -145226.23 
   39750    299.57718   -49.582995    457566.67   -145322.11    26342.096    24573.399    553261.13   -145351.16 
   40000    299.09248   -110.38119     459874.8   -144730.21    26299.475    24384.634    554011.68   -144760.35 
   40250    299.38036   -112.14085    459571.45   -145041.82     26324.79    24547.351     553550.6   -145069.62 
   40500    300.59037    281.52846    457698.74   -144991.58    26431.186    25100.943    553059.59    -145020.6 
   40750     300.8306     169.1379    458429.08   -144841.83     26452.31    24905.837    553391.74   -144868.85 
   41000    299.23774    151.93372    459210.12   -144771.31    26312.248    24869.892    553481.03   -144796.66 
   41250     299.7062   -12.355673    459507.41   -145082.73     26353.44     24704.47     553350.3   -145111.91 
   41500    302.03129   -21.029748    459664.19   -145069.72    26557.888    24657.117    553404.33   -145093.67 
   41750    299.96948   -88.304272    459808.34   -144816.26    26376.591    24480.457    553847.49   -144840.35 
   42000    301.03125    11.815581    459066.01   -145134.31    26469.953    24706.565    553306.58   -145156.68 
   42250    301.27746    -40.98361    457620.15   -145019.03    26491.603    24482.488    553637.74   -145041.61 
   42500    299.66561    15.681727    460227.53   -145132.71    26349.871    24784.599     553230.5   -145156.27 
   42750    298.51066  -0.79899673    462325.79   -144822.73    26248.316     24803.88    553525.01   -144840.08 
   43000    300.25279    67.826074    459275.31   -145143.73    26401.503    24850.985    553148.18   -145170.27 
   43250    300.46566   -2.6921647    460280.26   -144773.43    26420.221    24660.223    553681.13   -144803.72 
   43500    301.79843   -37.308601    458524.92   -145100.58    26537.412    24527.355    553503.07   -145129.39 
   43750    301.07951    54.219814    459637.87   -144945.01    26474.197    24827.979    553363.71   -144974.88 
   44000    300.38359    55.667106    459384.22   -144812.45    26413.004    24719.693    553620.53   -144838.55 
   44250    299.63359    45.803087    458363.51   -145010.83    26347.056    24826.604    553308.43   -145039.21 
   44500     300.8876    54.796547    459891.32   -145219.03    26457.322    24913.218    553030.71    -145240.7 
   44750    297.00516  -0.64605448    459795.95   -144832.49    26115.935    24732.965     553585.1   -144860.65 
   45000    300.50851   -12.595634    459067.28   -145166.93    26423.988    24663.793     553320.5   -145190.52 
   45250    298.06091    -65.84775    461265.63   -144909.05    26208.769    24645.004    553591.42   -144930.33 
   45500    301.27503    39.347585    459329.23   -145108.56     26491.39    24752.011    553285.62   -145129.65 
   45750    299.68756   -102.40581    461139.84   -144842.47    26351.801    24510.002    553786.65   -144866.13 
   46000    301.51425   -91.051933    461710.19   -144853.35    26512.424    24597.924    553687.63   -144880.68 
   46250    299.14762    48.317298    461137.23   -144734.45    26304.324    24804.031     553579.7   -144760.79 
   46500    298.93725    -13.61429    459881.53   -145042.86    26285.826     24707.81    553388.72   -145067.82 
   46750    299.35202    34.649573    458635.23   -145320.63    26322.297    24776.393    553038.55   -145347.07 
   47000    297.41136    -232.8201    460165.67   -145336.08    26151.653    24436.417    553375.59   -145363.01 
   47250    299.46379    11.230683    460288.55   -145028.03    26332.125    24786.113    553312.29    -145062.5 
   47500    300.26959    281.64953    458767.62   -144939.82     26402.98    25155.663    553054.67   -144963.31 
   47750    302.42513     -7.45893    459307.22   -144946.07    26592.519     24733.95    553446.72   -144973.95 
   48000    299.93082    -66.44118     459901.4   -145228.17    26373.192    24695.609    553216.62   -145255.43 
   48250    299.17553   -31.096377    458623.13   -145153.39    26306.778    24707.479    553274.53   -145178.77 
   48500    300.62915   -107.15318    458733.64   -145206.62    26434.596    24535.554    553400.89   -145229.46 
   48750    300.58492   -124.67106    459918.15   -144723.48    26430.708    24324.038    554084.54   -144748.59 
   49000    299.61488   -201.16269    460364.06   -144598.84     26345.41    24138.896    554391.44   -144627.69 
   49250    298.75431   -8.2754332    459243.82   -145202.46     26269.74    24724.289     553220.3   -145227.91 
   49500    301.38084    80.402414    458131.86   -144995.43    26500.693    24803.889    553348.93   -145020.65 
   49750    300.93643     19.13728    459982.34   -144862.46    26461.616    24673.521    553607.41   -144890.01 
   50000    299.94702    221.62651    459382.52   -145141.99    26374.616    25158.057    552838.69   -145164.93 
   50250    299.41288   -3.1647571    458986.94   -145018.55    26327.649    24650.161    553496.96    -145038.9 
   50500    298.47512   -31.748195    460339.54   -144771.84     26245.19    24602.012    553789.36   -144792.16 
   50750    299.15539    92.980322    457897.08   -144928.05    26305.008    24757.862    553454.63   -144952.76 
   51000    302.06674   -181.15313    460404.15   -144794.28    26561.005    24329.215    554036.31    -144821.8 
   51250    299.36694   -15.238693    459608.03   -144935.02    26323.609    24654.512    553570.96   -144959.91 
   51500    299.26003    21.007347     459894.2   -144672.33    26314.209    24636.351    553827.27   -144695.73 
   51750     300.2458    -32.06883    460508.14   -144748.12    26400.888    24553.392    553833.67   -144775.08 
   52000    299.52805   -122.87811    460868.67   -144829.86    26337.776     24497.21    553799.56   -144860.77 
   52250    299.38585    119.63326    460414.43   -144808.22    26325.272    24987.758    553335.86   -144833.11 
   52500    300.25164    113.17502    458569.45   -145079.87    26401.402    24861.912    553192.58   -145110.56 
   52750    302.23045   -19.487039    460595.31   -144969.39      26575.4    24648.789    553512.34   -144992.15 
   53000    298.85355   -67.364875    462812.76    -144739.3    26278.466    24663.728    553742.94   -144761.36 
   53250      299.625    -88.68053    459930.49   -144955.73    26346.301    24465.347    553724.19   -144975.09 
   53500     297.9814    184.93544    458408.36   -145149.96    26201.778     25008.66    552985.68   -145172.64 
   53750    299.78574   -22.298314    459292.88   -144733.36    26360.435    24458.177    553950.64   -144755.74 
   54000    302.14098   -31.287567    461133.52   -144505.29    26567.533    24464.187    554178.48   -144530.05 
   54250    301.33329    4.3031302    458908.55   -145246.16    26496.512    24777.461    553133.29   -145271.47 
   54500     301.4009    69.029597    459335.97   -144943.07    26502.457    24805.858    553383.69   -144968.75 
   54750    299.98337    35.781038    460500.62   -144950.65    26377.812    24782.329    553422.83   -144974.14 
   55000    302.12454   -129.31972    460180.56   -144973.69    26566.087    24459.523     553706.1   -144997.47 
   55250    300.68224    101.63586    459633.23   -145040.08    26439.265    24882.035    553198.24   -145065.75 
   55500    301.74766   -86.143957    460446.02   -145271.03    26532.948    24641.742    553236.73   -145295.07 
   55750    296.74729   -108.17351    460929.72   -144988.06    26093.261    24576.058    553581.69   -145010.24 
   56000    300.35156    -139.0556    461718.71   -144662.08    26410.188    24417.547    554066.25   -144686.92 
   56250    300.90472    130.62977    459191.86   -144921.84    26458.827    24816.414    553422.63   -144945.84 
   56500    299.85808    13.390003    457995.54   -144694.54    26366.795    24503.022    553939.88   -144718.08 
   56750    299.84698   -167.76301    458690.77   -144766.42     26365.82    24209.046    554159.55   -144791.75 
   57000     298.5806    20.979371    456874.86   -144766.64    26254.466    24385.029    554006.46   -144790.58 
   57250    300.89523   -10.621881    458824.49   -145022.96    26457.993    24650.838    553480.85   -145044.82 
   57500    299.10784    217.64278    457646.27   -144865.86    26300.826     24950.27    553302.71   -144893.75 
   57750    301.62457    115.77355    458440.83   -144957.66    26522.125    24786.424     553383.2   -144981.37 
   58000    300.46286    34.840905    459154.18   -144969.38    26419.974    24794.879    553380.88   -144997.13 
   58250    300.37351   -48.809571    459525.74   -144902.07    26412.117        24583    553652.55   -144928.53 
   58500    300.18842   -3.6906941    459506.95      -145044    26395.843    24706.243     553381.4    -145069.1 
   58750    301.40598    96.804685    459751.29    -144570.3    26502.904    24726.663    553840.72   -144601.53 
   59000    299.69893    26.582211    459283.76   -144784.62    26352.801     24638.77    553723.68   -144816.52 
   59250    300.79804    151.56759    457564.59   -144960.83    26449.447    24793.597    553374.05   -144991.28 
   59500    299.88035    8.4548838    459010.27   -144981.93    26368.754    24717.568    553430.46   -145013.88 
   59750    300.18046   -66.468696    460208.43   -144743.49    26395.143    24514.871    553892.25   -144771.93 
   60000    299.86004    13.827697    459060.28   -145034.54    26366.968    24714.877    553390.08    -145067.6 
   60250    298.20309    67.331453    460193.24   -144951.21    26221.271    24912.166     553266.7   -144977.38 
   60500    298.38932   -89.187823    461429.93   -145025.44    26237.646    24676.559    553413.49   -145056.74 
   60750    301.98176    117.20863    458630.23   -144920.94    26553.533    24749.366    553468.03   -144948.39 
   61000    298.55333    46.135932    459405.44   -144877.01    26252.068    24747.104    553518.83   -144904.67 
   61250    298.15173    12.103436    459994.51   -145105.88    26216.755    24795.972    553228.17   -145135.63 
   61500    299.48222    57.723371    460537.61   -144726.58    26333.746    24744.355    553665.23   -144752.86 
   61750    300.60915    70.984534    459768.16   -144777.88    26432.837    24716.167     553639.1    -144802.1 
   62000    298.89322    60.748841    459143.56   -144837.28    26281.955    24710.355    553603.17   -144862.29 
   62250    300.44856    -210.9771    460710.77   -144756.77    26418.717     24249.95    554124.54    -144789.2 
   62500    300.44687    26.556498    459492.62   -144890.39    26418.568    24675.649    553582.88   -144916.77 
   62750    303.22718    128.85207     460434.8   -145154.36    26663.043    25078.377    552906.73   -145181.49 
   63000    300.50272    69.856055    460145.18   -144927.58    26423.479    24845.781    553371.95      -144954 
   63250    299.57544    81.936712    459573.79   -145237.24    26341.943    24966.272    552946.88      -145261 
   63500    297.31365   -136.94732    457723.62   -145110.54    26143.062    24333.459    553698.54   -145133.62 
   63750    300.29718    114.01922    458578.55   -144917.24    26405.406    24796.928    553422.45   -144943.72 
   64000    302.61919   -28.457371    459526.33   -144612.35    26609.583    24446.287    554072.96   -144638.96 
   64250    300.50641    2.7028906    460022.29   -145071.82    26423.804    24766.302    553305.63    -145098.3 
   64500     300.6219    67.336556    459500.48   -144835.48    26433.959    24729.216    553577.36   -144859.85 
   64750    299.42871    110.56728    459849.87   -145117.86     26329.04    24881.954     553144.7    -145146.2 
   65000    300.84724     149.7539    460019.23   -144798.27    26453.773    24961.851    553375.27   -144821.56 
   65250    302.03374    35.165956    460160.95   -144928.26    26558.104    24793.882    553405.27   -144955.43 
   65500    300.41527    50.291772    461449.59    -144756.9     26415.79    24840.119    553538.98   -144787.28 
   65750    299.18374    32.933229    460759.88   -144954.63      26307.5    24797.121    553376.59    -144989.1 
   66000    299.29121    1.2801197    460616.06   -145132.96     26316.95    24831.939    553173.58   -145168.97 
   66250    299.25793    50.923841    460131.91   -145269.21    26314.024    24889.536    552979.52   -145300.18 
   66500    299.98989   -103.92123    459326.88   -144992.94    26378.386     24518.63     553635.8   -145018.43 
   66750    298.88267    56.279316    458477.96   -144986.19    26281.027     24704.98    553443.58   -145020.54 
   67000    301.35005   -49.221516    459752.73   -145216.49    26497.986    24672.539    553244.48    -145242.9 
   67250    299.09567    56.716833    459306.53   -144862.98    26299.756     24780.77    553496.74   -144885.49 
   67500    298.29356    124.02889    459714.31   -144661.31    26229.225    24804.808    553678.98   -144687.73 
   67750    299.72326    182.98387    460457.31   -144798.45    26354.941     25054.29    553269.28   -144823.77 
   68000    299.22229    138.95229    457877.06   -145147.37     26310.89    24895.895    553113.64   -145171.82 
   68250    299.54459   -95.202703    459470.08   -144701.75     26339.23    24416.339    554026.94   -144724.11 
   68500    299.89781    121.14082    459843.15   -144792.19    26370.289    24847.535    553487.84   -144823.98 
   68750    301.22924    62.015484    459064.98   -144845.88    26487.363    24689.492    553621.33   -144872.39 
   69000    299.90608    87.332939    460689.03   -144866.53    26371.016     24930.73    553355.78   -144889.62 
   69250    298.57114   -108.77556    461102.85   -144560.52    26253.634    24357.856    554209.44    -144587.9 
   69500    299.39824     65.78861    458906.01   -145033.16    26326.361    24814.499    553309.03   -145057.49 
   69750    299.42463     170.3866    460171.79   -144839.64    26328.681    25060.029    553235.45   -144866.09 
   70000    299.55059   -32.757431    460788.37   -144708.55    26339.758    24539.435    553903.72    -144730.8 
   70250     302.7213   -37.515956    458653.78   -144754.77    26618.561    24333.297    554054.95   -144784.13 
   70500    301.82277   -63.182725     460443.4   -144931.34    26539.553    24556.759    553643.69   -144962.48 
   70750    300.37102    -74.88789    461865.09   -144922.18    26411.899    24679.264    553536.47   -144949.47 
   71000    299.66167   -81.403551    459037.86   -145167.81    26349.525    24592.152    553367.28   -145195.98 
   71250    301.38724    130.62383    458223.21   -144820.72    26501.256    24778.282    553545.18   -144851.08 
   71500    301.69396    105.94995    458883.76   -144887.98    26528.226    24918.378    553356.72   -144920.74 
   71750    302.61403    81.139575    460341.45   -144700.34    26609.129    24753.941       553676   -144734.22 
   72000    299.39917    24.975407    458369.47   -145032.18    26326.443    24641.881    553454.38   -145070.36 
   72250    298.91976    13.984273    459542.88   -144649.27    26284.289    24572.241    553917.58   -144674.88 
   72500     299.6103    61.709087     459104.5   -145219.03    26345.008    24888.893    553020.55   -145250.69 
   72750    298.37666    27.308022    460790.27   -144986.69    26236.533    24841.961    553320.57   -145014.38 
   73000    301.36215    19.851562    461181.14   -144844.18     26499.05     24715.45    553565.03   -144878.46 
   73250    298.43475   -83.283179       460347   -145133.75    26241.641    24645.968    553339.12   -145160.54 
   73500    301.79045   -62.638354    459700.33   -145109.73     26536.71    24652.063     553388.8   -145141.88 
   73750    301.28665    28.409366    459999.15   -145038.62    26492.411    24823.579    553279.35   -145074.74 
   74000    299.26037   -30.694058    458871.71   -144949.66    26314.239    24519.043     553669.5   -144980.21 
   74250    298.02134   -66.835764    459598.77   -145144.36    26205.289    24636.463    553357.64    -145178.3 
   74500    299.15459   -44.972397    460600.89   -144824.14    26304.937    24551.851    553759.38   -144855.84 
   74750    301.27036    5.6232506    457990.29   -144902.53    26490.978    24533.614    553701.97   -144930.47 
   75000    298.44516    50.240883    458771.18      -145160    26242.556    24751.338     553219.8   -145186.11 
   75250    299.50837    69.997366    459899.34   -144745.61    26336.045    24713.134    553680.15   -144775.67 
   75500    301.65203   -104.93395    459811.82   -145141.55    26524.539    24518.443    553492.89   -145170.75 
   75750    299.22421   -106.73671    460569.03   -144832.97    26311.059    24504.342    553813.33   -144861.37 
   76000    297.68793    -16.22192     459739.1   -144867.91    26175.972    24676.591    553603.73   -144901.31 
   76250    301.49254   -38.061873    459232.02   -144643.61    26510.515    24413.145    554066.55   -144675.76 
   76500    300.57741   -69.280664    460687.06   -145050.42    26430.047    24684.619    553403.14    -145084.2 
   76750    298.99839    32.835629    460443.67    -145044.8    26291.203    24835.102     553265.3   -145074.91 
   77000    300.68896   -88.698849    459495.92   -144920.11    26439.855    24483.437    553737.33   -144953.03 
   77250    299.11821     92.00915    458402.22   -145268.35    26301.738    24981.179    552898.58   -145297.18 
   77500    298.06784   -135.26766    460718.97   -144924.91    26209.378    24552.988    553659.81   -144957.57 
   77750    300.38417    134.91802    458583.26   -145018.38    26413.055    24838.371    553274.96   -145046.63 
   78000    302.42629    244.17277    458547.96   -145104.96     26592.62    25093.725    552942.49   -145134.88 
   78250    303.46219    3.2940137    460953.45   -144990.09    26683.708    24728.323    553427.67    -145020.2 
   78500    300.05542    108.37353    460037.99    -145023.9    26384.147    24909.514    553197.55   -145051.95 
   78750     301.2011    92.039756    460121.12   -144725.96    26484.889    24755.953    553657.56   -144754.65 
   79000    299.42383    69.980858    460127.02   -144614.46    26328.611    24681.369    553838.27   -144643.29 
   79250    300.70094    86.106789    459835.46   -144928.77    26440.909     24866.84    553354.55   -144953.59 
   79500    299.36073   -129.58506    459739.46   -144862.97    26323.063    24380.401    553896.83   -144888.93 
   79750    298.30274   -39.362788    459271.58   -145085.99    26230.033    24581.875    553485.79   -145114.39 
   80000    301.29055   -112.69523    460059.16   -145032.53    26492.754    24457.925     553659.9   -145060.02 
   80250    301.87318   -78.215633    460573.66   -145071.27    26543.985    24598.909     553484.3   -145098.09 
   80500    298.90792   -28.495404    462097.78   -144888.23    26283.247    24690.528    553579.65   -144918.37 
   80750    300.59473    86.181039    459339.22   -144838.08     26431.57    24744.758    553558.57   -144864.83 
   81000    299.95552   -62.115324    459496.05   -144909.99    26375.364    24511.861    553710.13   -144937.82 
   81250    301.73157   -49.838972    460092.46   -144996.33    26531.534    24528.175    553630.43   -145027.46 
   81500    302.08259    32.028399    460779.94   -144725.37    26562.399    24708.632    553715.88   -144751.32 
   81750    301.81485    201.49988     460250.9   -144788.75    26538.856    25144.716    553223.34   -144814.16 
   82000    298.20846    101.03903    460036.89   -144933.04    26221.743    24924.691    553272.82   -144957.92 
   82250     299.7086   -86.347481    460432.26   -144833.05    26353.651    24484.657    553829.05    -144861.7 
   82500      300.712   -66.929468    461263.87    -145035.4    26441.881    24695.939    553408.85      -145060 
   82750    297.92989    247.90008    458179.66   -145010.84    26197.248    25096.658    553026.85   -145035.41 
   83000    300.36415    145.73984    459774.09    -144783.2    26411.294    24887.925    553478.08   -144808.05 
   83250    302.35444    19.480261    459504.52   -144807.88    26586.303    24568.871    553762.74   -144834.57 
   83500    302.46462    200.20476    459359.72   -145213.72    26595.991    25091.701    552840.93   -145244.27 
   83750    299.02053    62.599632     458912.2   -144778.94    26293.149    24689.635    553674.44   -144802.09 
   84000    299.22535   -6.3667127    460110.08   -145025.02    26311.159    24724.029    553387.93   -145050.11 
   84250    300.52368   -88.751852    460750.07   -145028.06    26425.322    24569.056    553565.63   -145053.16 
   84500    301.20911   -15.131271    460512.85    -144823.6    26485.593    24612.349    553712.05   -144851.31 
   84750    303.12309   -3.3952853    459727.78   -144807.42    26653.891    24602.227    553734.49   -144836.71 
   85000    302.12668    228.73569    458902.26   -144708.27    26566.276        24970    553464.85   -144738.68 
   85250     300.0914    2.5590589    458815.65   -144720.88    26387.311    24573.939    553847.94   -144750.61 
   85500    300.17185    6.5582528    458603.88      -145226    26394.385    24738.197    553197.09   -145257.31 
   85750    299.32847   -12.156981     459413.8   -144865.04    26320.227    24586.298    553686.78   -144892.76 
   86000    300.69434    56.209513    458690.09   -144791.27    26440.328    24661.055    553691.21   -144816.49 
   86250    298.91815   -16.882057    459206.36   -145133.49    26284.146    24665.774    553330.68   -145161.43 
   86500    299.08929   -120.22732    461241.39   -144813.84    26299.195    24512.917    553818.52   -144837.33 
   86750     300.5352   -35.468788       459434   -144960.56    26426.335    24644.901    553530.95   -144988.52 
   87000    301.15556    -56.58992    460241.82   -144842.31    26480.884    24589.682    553714.99   -144868.69 
   87250    300.18794    103.25198    458596.36   -145015.89    26395.801     24836.04    553283.29   -145042.76 
   87500    299.50529    41.129953    458791.99   -145019.93    26335.774    24742.738    553391.14   -145048.56 
   87750    301.60779    69.524729    459607.78   -144942.41    26520.649     24839.93     553362.8   -144971.55 
   88000      298.541   -93.719187    460270.04   -144667.52    26250.983    24438.123    554026.85   -144698.21 
   88250    300.60819    48.096632    458504.69   -145099.35    26432.753    24740.924    553291.36   -145128.48 
   88500    300.45668   -46.671348    457791.47   -144927.96    26419.431    24428.429    553774.42   -144960.31 
   88750    302.71042    91.137091    457666.27   -145272.05    26617.605    24812.279    553046.85   -145301.32 
   89000    300.61994   -48.046841    460536.11   -145025.85    26433.786    24580.512     553511.8   -145055.71 
   89250    302.00561    109.04084    459565.47   -145017.97     26555.63    24851.729    553256.06   -145049.52 
   89500    297.88796    38.104023     459777.4   -144863.97    26193.561    24812.467    553451.84   -144889.73 
   89750    299.80972   -79.962686    459868.23      -145033    26362.543    24508.639    553601.09   -145059.04 
   90000    298.93075   -5.8593057    460789.74   -144693.12    26285.255     24661.51    553776.38   -144722.34 
   90250    298.10025     54.11513    460041.72   -145100.14    26212.228    24877.727    553151.65   -145127.31 
   90500    300.53571    134.11626    458871.06   -144936.14     26426.38    24911.073    553308.08   -144963.07 
   90750    300.35452    86.189791    458110.43   -144614.07    26410.448     24520.39     554006.5    -144639.7 
   91000    298.28291   -61.024109    458933.61   -145035.39    26228.289    24487.203    553612.45   -145071.57 
   91250    300.50683    41.307409    458871.23   -145062.09    26423.841    24807.382    553276.24   -145085.97 
   91500    299.24073   -132.06882    459799.01   -144839.22    26312.511    24331.608    553970.19   -144866.39 
   91750    300.07256    57.919133    457788.29   -145292.51    26385.655    24864.464    553006.27   -145320.79 
   92000    297.76823   -72.435167     460028.3   -145027.56    26183.033    24619.849    553485.11    -145054.9 
   92250    299.86111    20.665813    460637.43    -145080.3    26367.062    24864.515     553214.1   -145110.13 
   92500     301.8133     28.80521    459064.99    -145193.2     26538.72    24801.733    553147.63   -145224.56 
   92750    300.23461   -54.972573    459684.31   -145043.39    26399.905    24631.985    553453.34   -145076.82 
   93000    299.66632   -63.186691    459332.97   -145036.96    26349.934    24618.679     553488.3   -145064.81 
   93250    301.86918    -43.31812    458808.03      -144949    26543.634    24554.391    553639.25   -144980.43 
   93500    298.87434    6.1864937    458812.14   -144945.48    26280.294    24708.013     553488.4   -144976.87 
   93750    300.07578   -164.11065    458858.06    -145395.8    26385.939    24557.572    553177.16    -145427.1 
   94000      300.723   -95.039179    459844.95   -145368.91    26442.849    24689.356     553063.8   -145401.83 
   94250    301.26086    112.02713    458564.76   -145165.28    26490.143    24997.179    552971.48   -145197.49 
   94500    300.97024   -44.948042    459569.24    -145217.5    26464.589     24764.39    553174.75   -145249.91 
   94750     301.8605   -31.336476    459796.47    -145136.9     26542.87    24739.717    553273.46   -145163.79 
   95000    301.05759   -24.309508    459396.79   -145262.76     26472.27    24755.656    553134.28    -145289.1 
   95250    298.43626    -96.14805    458830.08   -145154.66    26241.774     24517.56    553463.86   -145183.25 
   95500    299.19212   -47.395035     458152.4    -144898.9    26308.237    24444.227    553800.97    -144927.6 
   95750     301.2622   -33.722944    460409.27   -144861.58    26490.261    24617.397    553672.34   -144891.93 
   96000     301.1969     169.3486    459836.38   -144819.06    26484.519     24952.08    553391.25   -144843.89 
   96250    302.35263   -15.396406    457932.84    -145489.9    26586.144    24763.037    552881.78   -145522.87 
   96500    299.80534   -58.051501    459393.92   -145371.21    26362.158    24793.246    552961.57    -145407.9 
   96750    300.00522   -118.00007    459848.23   -144999.98    26379.734    24524.925    553622.46   -145028.88 
   97000    300.11806    275.30303    458134.56   -145066.54    26389.656    25197.385    552880.43   -145095.43 
   97250    300.55638    67.628982    457306.36   -145424.65    26428.197    24856.804    552869.75   -145454.97 
   97500    301.72447    24.369273    459134.87   -144911.31    26530.909    24635.377    553580.99   -144946.05 
   97750    299.19513   -77.662621    460094.11   -144743.85    26308.502    24404.295    553966.65    -144785.4 
   98000    296.51007    19.425648    459927.03   -145041.81    26072.402    24812.929    553283.45   -145076.55 
   98250    302.09093   -5.7037064    460007.87   -144661.33    26563.132     24501.42    553966.59   -144694.85 
   98500    296.57317    102.69445    460553.77   -144718.03     26077.95    24835.484    553578.83   -144755.81 
   98750    298.79659    108.99374    460318.85   -144558.04    26273.458    24829.686    553745.24   -144587.67 
   99000    300.19134    113.31125    458270.62   -145160.36    26396.099    24920.302    553060.51   -145190.88 
   99250    301.37752   -96.464265     458406.3   -144979.65    26500.401    24435.911     553702.3   -145016.43 
   99500    300.83191    23.881655    459064.85   -145086.96    26452.426    24737.549     553308.8   -145116.64 
   99750    300.39709   -15.209179    461045.33   -144968.68    26414.192    24766.519    553392.32   -145001.09 
  100000    300.36243     -59.1079    459427.89   -144371.82    26411.143    24332.469    554431.89   -144402.08 
Loop time of 45225.4 on 1 procs (1 MPI x 1 OpenMP) for 100000 steps with 44200 atoms

Pair  time (%) = 32257.1 (71.3253)
Bond  time (%) = 0.954093 (0.00210964)
Kspce time (%) = 3816.83 (8.43957)
Neigh time (%) = 5561.8 (12.298)
Comm  time (%) = 109.113 (0.241264)
Outpt time (%) = 1.57878 (0.00349092)
Other time (%) = 3477.97 (7.6903)

FFT time (% of Kspce) = 1013.75 (26.56)
FFT Gflps 3d (1d only) = 1.61036 2.54502

Nlocal:    44200 ave 44200 max 44200 min
Histogram: 1 0 0 0 0 0 0 0 0 0
Nghost:    70077 ave 70077 max 70077 min
Histogram: 1 0 0 0 0 0 0 0 0 0
Neighs:    1.46246e+07 ave 1.46246e+07 max 1.46246e+07 min
Histogram: 1 0 0 0 0 0 0 0 0 0

Total # of neighbors = 14624559
Ave neighs/atom = 330.872
Ave special neighs/atom = 2.00851
Neighbor list builds = 10978
Dangerous builds = 9786
write_restart   confout-0.data
PPPM initialization ...
  G vector (1/distance) = 0.263252
  grid = 90 25 25
  stencil order = 5
  estimated absolute RMS force accuracy = 0.040162
  estimated relative force accuracy = 0.000120947
  using double precision FFTs
  3d grid and FFT values/proc = 97280 56250
