LAMMPS (24 Apr 2013)
WARNING: OMP_NUM_THREADS environment is not set. (../comm.cpp:100)
  using 1 OpenMP thread(s) per MPI task
# ----------------- Init Section -----------------
units           real
atom_style      full
boundary	p p p
kspace_style	pppm 1.0e-4

# ----------------- Atom Definition Section -----------------
read_restart	confout-0.data
  orthogonal box = (0.305755 0.149758 0.149758) to (97.6942 47.8502 47.8502)
  1 by 1 by 1 MPI processor grid
  8521 atoms
  5688 bonds
  2832 angles
  2 = max # of 1-2 neighbors
  2 = max # of 1-3 neighbors
  4 = max # of 1-4 neighbors
  6 = max # of special neighbors

# ----------------- Settings Section -----------------------
# Bond parameters
#           bond-type   k      	r0
# Water
bond_coeff   	1  	200.0   1.0
angle_coeff  	1 	200.0   109.47
# CG25
bond_coeff  	2       72.54   2.5

# LJ Interactions
#             atom1   atom2	epsilon	sigma
pair_coeff   	1 	1 	0.1553  3.166
pair_coeff   	1 	2 	0.0     0.0
pair_coeff 	1 	3 	0.1777 	3.783
pair_coeff   	2 	2 	0.0     0.0
pair_coeff   	2 	3 	0.0     0.0
pair_coeff 	3 	3 	0.2032	4.4

group spc type	1 2
8496 atoms in group spc

# ----------------- Minimize -----------------
# command  	etol    ftol   maxiter  maxeval
#minimize	1.0e-6	1.0e-8	200	2000

# ----------------- Run Section -----------------
# Write initial structure out
dump            icrd all custom 5 system.lammpstrj id mol type x y z ix iy iz
dump_modify     icrd sort id
run             1
WARNING: No fixes defined, atoms won't move (../verlet.cpp:54)
PPPM initialization ...
  G vector (1/distance) = 0.258474
  grid = 40 24 24
  stencil order = 5
  estimated absolute RMS force accuracy = 0.0322331
  estimated relative force accuracy = 9.7069e-05
  using double precision FFTs
  3d grid and FFT values/proc = 43245 23040
Memory usage per processor = 22.5401 Mbytes
Step Temp E_pair E_mol TotEng Press 
    1500    202.51602   -23510.462   0.55280763   -18366.711    7939.4481 
    1501    202.51602   -23510.462   0.55280763   -18366.711    7939.4481 
Loop time of 0.0501611 on 1 procs (1 MPI x 1 OpenMP) for 1 steps with 8521 atoms

Pair  time (%) = 0.0408192 (81.3761)
Bond  time (%) = 0.000545025 (1.08655)
Kspce time (%) = 0.0086 (17.1447)
Neigh time (%) = 0 (0)
Comm  time (%) = 0.000108957 (0.217215)
Outpt time (%) = 5.6982e-05 (0.113598)
Other time (%) = 3.09944e-05 (0.0617897)

FFT time (% of Kspce) = 0.00281369 (32.7174)
FFT Gflps 3d (1d only) = 1.64507 2.72607

Nlocal:    8521 ave 8521 max 8521 min
Histogram: 1 0 0 0 0 0 0 0 0 0
Nghost:    13038 ave 13038 max 13038 min
Histogram: 1 0 0 0 0 0 0 0 0 0
Neighs:    1.29084e+06 ave 1.29084e+06 max 1.29084e+06 min
Histogram: 1 0 0 0 0 0 0 0 0 0

Total # of neighbors = 1290842
Ave neighs/atom = 151.489
Ave special neighs/atom = 2.01033
Neighbor list builds = 0
Dangerous builds = 0

# Reset the timestep
undump          icrd
reset_timestep  0

# Timestep and Neighbour searching
timestep	2.0
neighbor        2.0 bin
neigh_modify	delay 4 every 1 check yes

# Fixes
fix 		shake spc shake 0.0001 10 0 b 1 a 1
  0 = # of size 2 clusters
  0 = # of size 3 clusters
  0 = # of size 4 clusters
  2832 = # of frozen angles
fix   		npt all npt temp 300.0 300.0 100.0 iso 1.0 1.0 10000.0

# Initial velocity
velocity	all create 300 432567 dist uniform

# Write out thermodynamic information
thermo_style    custom step temp press vol pe ke evdwl ecoul epair
thermo	        250

# Write out trajectory
dump            cxtc all xtc 250 traj-1.xtc

# Write out velocity
#dump 		1 all custom 1 vel_npt.txt vx vy vz

# Checkpoint files
restart         5000 state_cpt-*.data

# Final run command
run             250000
PPPM initialization ...
  G vector (1/distance) = 0.258474
  grid = 40 24 24
  stencil order = 5
  estimated absolute RMS force accuracy = 0.0322331
  estimated relative force accuracy = 9.7069e-05
  using double precision FFTs
  3d grid and FFT values/proc = 43245 23040
Memory usage per processor = 22.9455 Mbytes
Step Temp Press Volume PotEng KinEng E_vdwl E_coul E_pair 
       0          300    -682.7009    221591.56   -23509.909    5086.4543    4410.5342    110125.42   -23510.462 
     250    307.59104   -387.80565    221276.26   -24047.945    5215.1592    4467.6672    109520.67   -24049.828 
     500     297.0468   -250.65075    220519.87   -24468.464    5036.3832    4572.7027    109028.78   -24469.925 
     750    301.24511   -136.61173    219482.03   -24880.894    5107.5649    4645.4073    108552.04   -24883.055 
    1000     300.2034   -93.665799    218364.25   -25619.512    5089.9028    4807.5735    107670.99   -25622.092 
    1250    296.65297    -30.81878    217357.57    -25681.99    5029.7059    4752.6802     107662.6   -25684.067 
    1500    301.54486    53.637619    216534.92   -26025.266    5112.6472    4855.2679    107232.25   -26029.171 
    1750    295.08689     36.77235    215951.57   -26279.184    5003.1532    4847.7888    106989.67    -26280.88 
    2000    303.21655   -3.4152668    215521.78   -26374.082    5140.9903    4765.5197    106997.99   -26378.921 
    2250    299.84193    176.16093    215196.87   -26456.121    5083.7743     4929.725    106751.63   -26461.469 
    2500    298.84653     77.23031    214954.75   -26329.656    5066.8973    4792.3496    107006.79   -26333.068 
    2750     295.4876   -117.61632    214766.45   -26233.052    5009.9472    4627.9969    107271.91   -26239.371 
    3000    301.72698   -22.366423    214529.82   -26372.398     5115.735    4719.5411    107042.18   -26376.525 
    3250    302.94239      32.5394    214236.21   -26188.494    5136.3421    4698.5254    107246.14   -26191.905 
    3500    295.97774   -43.251908     213918.5    -26421.15    5018.2575     4713.823    106998.86   -26423.881 
    3750    294.88332    170.82755    213563.12   -26415.463    4999.7017    4824.3061     106911.5   -26419.793 
    4000    303.77241   -43.007963    213258.47   -26533.498    5150.4149    4650.8457    106959.37   -26538.232 
    4250     301.3438    30.628345    212957.92   -26446.846    5109.2381    4694.9182    107009.34   -26451.779 
    4500    300.92043   -61.295188    212691.73   -26342.571      5102.06    4650.6842    107141.12   -26349.424 
    4750    303.77989    7.3782282    212396.41   -26463.485    5150.5418    4691.4713    106977.84   -26467.541 
    5000     299.5551   -69.180056    212052.77   -26489.755     5078.911    4659.7155    106990.13   -26493.026 
    5250    301.31006   -3.2133164    211689.67    -26532.42    5108.6662    4722.6644    106889.99   -26535.262 
    5500    296.27287    24.487722    211315.69   -26396.689    5023.2613    4729.8407    107015.94   -26401.016 
    5750    301.77707   -12.546168    210929.38   -26494.176    5116.5841    4659.8976    106989.55   -26497.627 
    6000    299.96323   -43.248111    210541.88   -26563.101    5085.8308    4679.1265    106891.61   -26567.567 
    6250    300.34172    15.208062    210157.95   -26437.423    5092.2481    4655.6924     107046.9   -26442.462 
    6500    293.69888   -2.8194349    209802.85   -26594.032    4979.6198    4767.9854    106784.37   -26599.173 
    6750    305.68723     -103.815    209464.11    -26557.71    5182.8804    4680.9891    106904.36    -26563.74 
    7000    300.43912    -33.40588    209086.43   -26424.093    5093.8995    4680.2232    107030.73   -26428.487 
    7250    301.61587   -12.630192    208672.25   -26464.631    5113.8512    4676.9415    106993.64   -26470.855 
    7500    298.23483    -166.3991    208267.18   -26636.036    5056.5261    4658.1304    106844.74    -26641.05 
    7750    297.22161   -95.410688       207845   -26583.615    5039.3472    4697.8576    106868.92   -26587.992 
    8000    300.40216   -97.500352    207418.54   -26568.269    5093.2728      4656.42    106915.25   -26572.828 
    8250    302.45443    28.510172    206959.18   -26558.629    5128.0688    4756.9692    106843.73   -26563.463 
    8500    300.21549    106.14795    206510.38   -26601.635    5090.1079    4781.2296    106770.79   -26607.635 
    8750    302.59794   -155.04483    206104.92   -26624.184    5130.5019    4551.0776    106965.33   -26629.437 
    9000    301.68906    55.736884    205718.66   -26526.581    5115.0921    4691.9514    106922.26   -26533.233 
    9250    303.86239    61.532544    205356.52   -26512.327    5151.9405    4761.2944    106850.92   -26519.198 
    9500    302.62991   -11.442403    204976.66   -26518.865     5131.044    4706.8307    106916.15   -26523.287 
    9750    306.21562   -114.81408    204569.85   -26628.441    5191.8391    4660.5601    106851.77   -26632.114 
   10000    304.80513    62.286331    204135.12   -26581.925    5167.9245    4721.4253    106826.14   -26586.493 
   10250    302.19229   -141.59596    203754.66    -26609.96    5123.6242    4575.0791    106959.39   -26614.898 
   10500    296.52822    12.142022    203387.48   -26533.805    5027.5907    4712.8712    106892.08   -26538.232 
   10750    300.29818   -22.206243    203007.31   -26393.039    5091.5099    4600.0158    107142.71    -26396.16 
   11000    299.53557   -115.82752    202610.39   -26562.488      5078.58    4623.3761    106960.73   -26565.508 
   11250    304.12237   -176.64292    202235.17   -26578.866    5156.3485    4571.7134    106993.86   -26583.942 
   11500    303.08029     52.28645    201841.81   -26505.566    5138.6802    4763.9488    106869.96   -26509.572 
   11750    300.08728   -33.914967    201437.47   -26510.863    5087.9341    4688.7516    106951.09   -26516.749 
   12000    298.50725    76.938536    201055.25   -26400.456    5061.1449    4713.7126    107027.46   -26405.733 
   12250    297.68141   -218.81537    200659.98   -26572.345     5047.143    4559.2304    107015.05   -26575.324 
   12500    300.79875   -90.911849    200218.73    -26675.34     5099.997    4715.0105    106751.43   -26679.196 
   12750    301.07087   -190.77215     199777.1   -26693.379    5104.6107    4599.7827    106853.15   -26698.352 
   13000    298.29527   -29.662757    199344.88   -26597.106    5057.5508    4726.7657    106820.52   -26601.661 
   13250    307.02292   -43.914067    198948.34    -26432.29    5205.5269    4650.9378    107055.43    -26438.03 
   13500    298.03275   -3.7165824    198543.36    -26422.48    5053.0998    4680.1821    107030.97   -26428.899 
   13750    295.98387    148.32263    198112.24   -26541.012    5018.3615    4855.3343    106739.93   -26545.817 
   14000    297.51113   -82.740281    197699.53   -26618.537    5044.2558    4670.5669    106852.66   -26622.765 
   14250    302.28056   -137.92697    197310.33   -26719.143    5125.1208    4661.7251    106757.71   -26724.443 
   14500    297.17805   -129.24757    196895.52   -26517.242    5038.6086    4605.6069    107032.07   -26522.856 
   14750    301.61829    139.90301    196452.09   -26615.009    5113.8921    4843.8977    106673.25   -26622.193 
   15000    303.97443   -63.430643    196050.47   -26533.918    5153.8401    4591.5103    107015.19   -26543.195 
   15250    299.97974   -17.216076    195664.48   -26616.747    5086.1108     4680.424     106848.1   -26624.223 
   15500    299.28611   -171.71675    195287.47   -26547.108    5074.3503    4536.1796    107065.38   -26556.594 
   15750    296.49763    68.930063    194865.86   -26565.351     5027.072    4735.4017    106837.56   -26570.713 
   16000     308.3904   -171.49007    194459.64    -26401.96    5228.7122    4510.3437    107234.07   -26411.967 
   16250     301.6443   -47.841912    194026.09   -26436.624    5114.3331    4668.0873    107024.68   -26449.288 
   16500     307.0344   -91.139994    193552.58    -26798.04    5205.7215    4728.1171     106622.6   -26803.686 
   16750    304.49768   -170.03853    193083.99   -26536.835    5162.7118    4608.6474     106999.1   -26549.448 
   17000     298.0036    18.321366    192598.51   -26662.086    5052.6057    4789.7518    106697.29   -26671.043 
   17250    301.63921   -187.89653    192126.92   -26716.147    5114.2468    4614.1915    106804.35   -26728.588 
   17500    296.48853   -29.568802    191672.05   -26658.318    5026.9178    4733.8462    106761.26   -26665.039 
   17750    299.58661   -40.618315    191234.62   -26578.029    5079.4452    4693.7734    106874.49   -26584.811 
   18000    297.48703   -69.423627    190787.96   -26742.496    5043.8472    4746.0651     106663.1   -26750.739 
   18250     300.2157   -165.95947       190315   -26728.058    5090.1114    4607.6583    106814.01   -26735.752 
   18500    299.09922   -62.274115    189863.42   -26744.075    5071.1816    4701.8616    106715.43    -26751.68 
   18750    299.70718   -110.38202    189445.85   -26730.614    5081.4895    4677.4558    106747.85   -26738.057 
   19000     302.3276    30.257984    189036.23   -26649.748    5125.9183    4800.2068    106701.33   -26659.045 
   19250    295.00023   -221.65638     188606.6   -26553.561    5001.6839    4542.6209    107055.61    -26561.96 
   19500    297.37817   -109.00246     188137.3   -26662.659    5042.0015    4664.4116    106821.52   -26670.476 
   19750    299.74873   -39.615288    187701.78   -26657.392    5082.1941    4721.1539    106765.16   -26667.303 
   20000    301.19684   -253.07592    187281.01   -26690.363    5106.7466    4600.4762    106858.62   -26700.162 
   20250    294.31443   -49.073363    186830.23   -26821.126    4990.0563    4781.1276    106559.27   -26830.586 
   20500    300.26709   -113.90722    186408.63   -26560.561    5090.9828    4625.3779    106958.24   -26569.335 
   20750    298.86445   -223.78191    185981.03   -26532.515    5067.2013    4538.6055    107067.26   -26539.279 
   21000    296.98741   -19.793631    185507.96   -26602.504    5035.3763    4639.5422     106903.1   -26610.537 
   21250    302.96417    21.995519    185045.03   -26521.095    5136.7113    4639.0441     106984.2   -26530.952 
   21500    297.19325   -323.19707    184664.49   -26741.612    5038.8663     4490.388     106930.1   -26749.558 
   21750     297.4154   -250.09569    184277.82   -26699.398    5042.6328     4557.413    106891.09    -26709.13 
   22000    302.61336   -103.51037    183869.18   -26700.143    5130.7635    4682.0629    106762.52   -26708.324 
   22250    299.49785   -282.94149    183452.03     -26794.7    5077.9403    4562.0581    106783.63   -26803.534 
   22500    296.77782   -241.37828    183014.02   -26643.679    5031.8228    4579.6099    106923.29   -26648.804 
   22750    301.01696     -172.567    182552.77   -26641.216    5103.6966     4634.563     106883.7   -26647.816 
   23000    296.53149    59.469774    182066.19   -26705.296    5027.6462    4745.7044    106699.35   -26714.099 
   23250    303.03887   -146.82555    181609.48   -26781.062    5137.9778    4605.0587     106765.8   -26786.827 
   23500      301.479   -26.263574     181190.9    -26863.71    5111.5306    4775.3371    106509.51   -26868.644 
   23750    297.71524   -135.71338    180803.76   -26603.525    5047.7165    4597.4761     106962.9   -26610.068 
   24000    295.90843   -250.78075    180407.33   -26714.209    5017.0824    4554.2093    106884.26   -26721.936 
   24250    302.69075   -154.67302    180003.27   -26582.411    5132.0755    4555.5785    107015.18   -26591.853 
   24500    294.36728    55.846994    179552.32    -26666.26    4990.9524    4734.2964    106749.28   -26670.641 
   24750    298.81197    31.976609    179116.88   -26639.111    5066.3114    4703.4602    106811.07   -26649.334 
   25000    299.58656    140.27246    178729.34   -26632.095    5079.4445    4783.6091    106738.06   -26642.313 
   25250    298.68972   -254.49761    178350.67   -26720.008    5064.2386    4533.6753    106890.39   -26730.231 
   25500    301.38702   -135.93311    177930.38   -26809.401     5109.971    4614.8038     106733.1   -26815.483 
   25750    301.14628   -205.55964    177537.32   -26781.745    5105.8893    4600.1727    106788.27   -26788.074 
   26000    303.38735    -154.7088    177161.78   -26688.421    5143.8863    4632.1014    106825.16   -26697.759 
   26250    294.74134   -224.88863    176804.84   -26661.416    4997.2946    4561.8613    106925.78   -26671.325 
   26500    299.56245   -226.35377    176423.21   -26822.353    5079.0357    4578.7439    106747.24   -26828.201 
   26750    298.91448   -5.4688135    176006.12   -26913.799    5068.0494    4782.3861    106461.21   -26919.004 
   27000    301.22039   -228.42469    175618.28   -26712.734    5107.1458    4543.7988    106901.43   -26717.275 
   27250     299.0592   -53.967481     175236.2   -26651.238    5070.5031    4635.3511    106868.12   -26658.441 
   27500    303.28848   -124.18015    174848.79   -26717.918      5142.21    4661.7398    106776.05   -26725.826 
   27750    300.99698   -150.68722    174432.63   -26799.085    5103.3578    4679.8505    106668.66   -26808.336 
   28000    299.02386   -117.12517     174000.9   -26747.462    5069.9039    4650.5936    106754.19   -26756.082 
   28250     299.1835    32.817359    173580.43   -26835.706    5072.6106    4783.4917    106536.18   -26843.569 
   28500    301.06162   -47.198002    173166.98   -26697.367    5104.4538    4610.7619    106848.42   -26707.553 
   28750    300.62035   -109.04653    172777.24   -26919.437    5096.9723    4692.8113     106547.9   -26928.498 
   29000    298.50067    75.882196    172395.22   -26882.083    5061.0334    4889.4875    106381.94   -26891.215 
   29250    304.32782   -234.23781    172023.46   -26655.156    5159.8317    4532.5744    106973.57   -26660.802 
   29500    299.23699   -165.91755    171647.49   -26703.505    5073.5175    4611.4005    106847.65   -26712.767 
   29750    300.88575   -133.51981    171244.15   -26740.212     5101.472    4632.2535    106781.97   -26746.037 
   30000    300.37947    41.105482    170830.78   -26754.561    5092.8881    4708.5666    106696.39   -26763.949 
   30250    300.01077   -161.18832    170444.56   -26843.536    5086.6368    4611.0341    106708.01    -26851.61 
   30500    306.92044   -65.038925    170076.47   -26890.258    5203.7893    4727.7325    106531.29   -26898.823 
   30750    294.60331   -279.93486    169736.77   -26721.822    4994.9542    4529.3745    106912.48   -26726.735 
   31000     296.2851   -76.878303    169398.24   -26701.473    5023.4686     4662.382    106790.96   -26710.899 
   31250    298.77803    24.253063    169037.03   -26725.312    5065.7359    4748.0413    106690.68    -26734.23 
   31500     299.9732   -217.78533    168695.77   -26889.828    5085.9999     4567.383    106708.24   -26897.254 
   31750    294.05642   -106.00726    168343.98   -26917.285    4985.6819    4704.2253     106528.5   -26926.221 
   32000    302.14333   -68.658756    167990.22   -26694.807    5122.7941    4651.7682    106806.99   -26704.764 
   32250    298.82236   -116.99339    167642.61   -26756.377    5066.4875    4679.3371    106722.16   -26763.433 
   32500    301.78543   -82.001902    167256.19     -26875.5     5116.726    4749.5574    106530.24    -26885.02 
   32750    302.98202   -70.391733     166827.8   -26718.395    5137.0139    4691.7868    106741.23   -26729.742 
   33000    300.11686    -147.3423    166381.78   -26955.478    5088.4356    4722.0348    106479.49   -26962.614 
   33250    302.27597    54.555821    165943.11   -26826.464     5125.043    4752.6716    106578.33   -26835.359 
   33500    302.41987   -139.17299    165565.13   -26840.152    5127.4827    4603.7965    106722.99   -26851.184 
   33750    299.74007   -178.47197    165198.42   -26901.491    5082.0472    4657.8736    106601.17   -26912.742 
   34000     300.9166   -111.91075    164821.72   -26885.295    5101.9951    4696.0728    106558.09   -26893.112 
   34250    302.23252   -161.89309    164442.58   -26806.953    5124.3062    4614.2844     106740.7   -26818.284 
   34500    299.84683   -222.69333    164047.32   -26796.265    5083.8572    4554.5225    106803.12   -26809.659 
   34750    299.73859   -38.079278    163657.85   -26845.561     5082.022    4736.6415    106573.15   -26853.476 
   35000     304.0354   -283.87506    163286.22    -26819.37    5154.8738    4583.8243    106750.61    -26828.08 
   35250    300.55571   -57.047397    162875.86   -26680.474    5095.8762    4683.0847    106790.64   -26687.485 
   35500    300.86788   -41.395377    162471.58   -26731.156    5101.1691    4736.1115    106703.31   -26739.786 
   35750    299.06819   -60.692202    162070.07   -26760.169    5070.6556    4709.2312    106694.11   -26765.085 
   36000    302.68783    112.53487    161669.54   -26660.402    5132.0261    4721.3347    106779.66    -26666.09 
   36250    304.91069   -158.37947    161323.02   -26972.171    5169.7143    4638.3466    106545.98   -26979.423 
   36500    300.84581   -89.125764    161008.64   -26826.393    5100.7949    4677.4084    106652.22   -26833.303 
   36750    297.33264    63.697445    160668.79   -26828.328    5041.2297    4795.0749    106539.77   -26831.726 
   37000    301.54728    -235.4295     160343.8   -26912.577    5112.6882    4584.0992    106675.69   -26918.236 
   37250    300.22482   -63.288683    160031.99   -26899.471    5090.2661    4712.8823    106553.15   -26905.596 
   37500    300.54624   -310.46523    159722.51    -26983.91    5095.7158    4593.9656    106578.26   -26989.029 
   37750    304.52284   -236.17102    159401.31   -26835.849    5163.1383    4563.7942    106767.07   -26842.837 
   38000    299.49211    85.038394    159099.55   -26906.314    5077.8431    4819.9419     106441.4   -26912.984 
   38250    298.64354   -360.69855    158817.76   -26825.565    5063.4556    4540.3855    106802.39   -26829.849 
   38500    296.60363   -210.43648    158493.19   -26897.309    5028.8693    4631.7315     106634.4   -26901.988 
   38750    294.23312   -144.34498    158111.25   -26883.399    4988.6777    4682.4891    106603.66   -26891.025 
   39000    306.02928    20.864831    157710.82   -26809.943    5188.6798     4738.565    106613.13   -26818.112 
   39250    299.68382    135.76195    157350.25   -27000.563    5081.0935    4915.2598    106248.52    -27004.68 
   39500    291.86937   -243.58734    157035.92   -26914.686    4948.6006     4646.383    106603.38   -26920.132 
   39750    296.99721   -122.28274    156703.44    -26800.74    5035.5424    4665.2744    106692.51   -26806.418 
   40000    307.03256   -73.455407    156356.33   -26984.159    5205.6902    4753.7888    106422.55   -26989.506 
   40250    300.47661    -168.9925     156019.9   -27027.625    5094.5352    4660.6791    106473.86   -27033.321 
   40500    298.48798   -405.06518    155691.48   -26832.056    5060.8181    4410.1904    106919.58   -26838.444 
   40750    296.54038   -83.124495    155348.92   -26939.916     5027.797     4684.287    106536.57   -26945.395 
   41000    297.38633   -277.25345    155038.17   -26859.963    5042.1398    4497.9524    106804.59   -26865.217 
   41250    301.04911   -229.71937    154757.62   -26880.374    5104.2417    4627.8923    106651.61    -26887.58 
   41500    300.01407   -131.69448    154471.78   -26890.223    5086.6928    4699.6114    106565.57   -26893.117 
   41750    301.26216   -132.53122    154151.24    -26783.35    5107.8541    4690.3947    106680.13    -26787.81 
   42000    299.19344    71.369017    153779.26   -26800.289    5072.7791     4795.743    106561.95   -26805.084 
   42250    302.15438   -83.158326    153409.55   -26840.959    5122.9814    4685.7855    106635.43   -26847.405 
   42500    295.41452    58.356531    153067.04   -26945.529    5008.7082    4804.0385    106409.73    -26951.71 
   42750    293.80474   -225.21223    152773.47   -26845.354    4981.4146     4584.724    106743.84   -26849.956 
   43000    293.63728    -256.5627    152439.26   -26989.142    4978.5753    4693.8337    106476.31   -26994.053 
   43250    296.44392   -177.42891    152048.93   -26857.336    5026.1615    4664.7774    106645.04   -26864.028 
   43500    306.01498   -216.86897    151656.29   -26929.828    5188.4373    4614.7188    106634.12   -26935.952 
   43750    297.64317   -142.24142    151284.16   -26808.252    5046.4946    4645.6237    106715.18   -26814.813 
   44000    295.20284   -63.137665    150935.65   -26990.828    5005.1191    4753.6778    106421.54    -26999.24 
   44250      294.723   -408.09272     150637.1   -26860.018    4996.9835    4498.2119    106799.84    -26868.73 
   44500    302.25839    40.305291    150338.81   -26867.388    5124.7449    4765.7641    106536.16   -26873.929 
   44750    297.86706   -137.14546     150022.2     -26846.3    5050.2906    4692.3903     106614.5   -26851.974 
   45000    298.14979   -291.12158    149658.91   -26850.141    5055.0842    4582.5172    106724.46   -26858.841 
   45250     300.6482   -13.748099    149305.47   -26898.677    5097.4443     4719.905    106534.75   -26906.896 
   45500    301.16554   -192.03589       149004   -26821.283    5106.2158    4623.1989    106720.27   -26827.173 
   45750    297.50742   -118.99871    148690.92   -26809.429    5044.1929    4642.8101    106699.17   -26817.507 
   46000    304.30795    67.464946    148374.13   -26953.389     5159.495     4807.705    106409.25    -26962.01 
   46250    298.28879   -366.58556    148051.42     -26816.2     5057.441    4509.8882    106835.18   -26822.886 
   46500    300.92499    59.826862     147700.3   -26903.652    5102.1373    4790.3771       106478   -26909.473 
   46750    300.19131   -123.40978    147339.93   -26930.529    5089.6979    4676.9751    106563.29   -26934.474 
   47000    303.73535   -172.36908    146979.89   -26812.199    5149.7866    4620.4094    106727.32   -26819.988 
   47250    304.56222   -189.55649    146609.79   -26761.902    5163.8061    4576.9352    106823.83   -26769.603 
   47500    299.80539    -282.8655    146235.84   -26857.934    5083.1547    4530.5437    106765.85   -26864.805 
   47750    299.48846    218.87518    145840.88   -26793.981    5077.7813    4843.0926    106518.34   -26802.694 
   48000    302.98455    115.11791    145500.38   -27063.604    5137.0569    4846.3821    106260.83   -27071.584 
   48250    297.67584   -365.96031    145218.92   -26922.235    5047.0485    4535.8193    106699.72   -26930.264 
   48500     301.5128   -74.302015    144914.12   -26875.087    5112.1036    4722.0311    106566.57   -26881.549 
   48750    304.87042   -101.72721    144577.55   -26942.118    5169.0314    4689.7773    106532.49   -26949.929 
   49000    295.66965   -185.43146    144223.79    -26910.69    5013.0338     4641.525     106608.5    -26919.43 
   49250    300.34511   -28.606847    143894.92   -26958.758    5092.3056    4713.9035    106491.69   -26967.996 
   49500    298.42522   -129.48441    143579.41   -26837.834    5059.7541     4653.202    106666.22   -26847.986 
   49750    298.92473    37.461681    143253.33    -26859.15    5068.2232    4740.5868    106564.29   -26867.481 
   50000    297.65741   -176.04002    142971.11   -26991.065    5046.7361    4638.7793    106537.74   -27001.205 
   50250    304.69387    79.464437    142713.85   -26893.536    5166.0381    4763.8411    106507.61   -26902.724 
   50500    301.30706    -106.1512    142463.79   -26807.955    5108.6153    4634.9279    106709.69    -26818.73 
   50750    297.54411   -122.19672    142203.48   -26864.982    5044.8151    4711.6224    106595.31   -26873.564 
   51000    298.30702   -288.54734    141916.64   -27005.447    5057.7501    4623.1091    106526.74   -27019.027 
   51250    300.53015    -98.23322    141616.04   -27007.865    5095.4428    4749.0799    106407.59   -27016.136 
   51500    302.09704    14.965432    141291.01   -26919.596    5122.0093    4756.7581    106479.14   -26930.232 
   51750    297.64697    72.455134    140960.08   -26971.332     5046.559    4776.4454    106418.23   -26980.156 
   52000     296.6668   -159.53815    140653.73   -27052.052    5029.9403    4715.1622    106400.55   -27059.778 
   52250    307.71609    44.991629    140377.47   -26998.625    5217.2794    4754.5751    106412.69   -27006.956 
   52500    297.94003   -257.43927    140106.17   -26903.395    5051.5277    4575.8508    106683.55   -26913.418 
   52750    300.50664    -307.1263    139757.19   -26842.365    5095.0443    4580.9034    106750.44    -26847.59 
   53000      299.904   -522.49045    139338.57   -26940.572    5084.8265    4469.0058    106759.83    -26946.12 
   53250     296.4768   -181.18795    138878.26   -26894.747     5026.719    4662.4524    106618.11   -26902.908 
   53500      291.518   -412.52552    138478.23   -27017.549    4942.6432    4520.3435    106634.27   -27022.375 
   53750    301.51163   -144.35808    138131.33   -27030.875    5112.0837    4679.3437    106475.88   -27034.479 
   54000    296.78535   -255.29018    137786.04   -26811.793    5031.9504    4563.0837    106787.44   -26818.455 
   54250    299.32593   -346.32432    137430.21   -26943.671    5075.0256    4526.2023    106694.67   -26949.833 
   54500    297.94162   -371.25321    137057.71   -26971.303    5051.5547    4558.3124    106650.13   -26975.724 
   54750    304.48189   -250.60823     136655.4   -27074.124     5162.444    4654.3372     106448.1   -27079.377 
   55000    301.54766    210.78033    136234.63   -26985.151    5112.6946    4897.3397     106290.4   -26990.977 
   55250    296.99936   -284.62915    135858.47    -26976.45    5035.5788    4665.2367    106535.09   -26982.103 
   55500    297.49261   -330.48391    135448.82   -26913.522    5043.9419    4595.9399    106651.05   -26918.939 
   55750     301.9988   -179.42628    135022.25   -26853.793    5120.3437    4635.9149    106681.01   -26859.218 
   56000    294.95635   -285.81569    134594.15   -27024.819      5000.94    4621.4733    106524.47   -27028.688 
   56250    298.11932   -38.888961    134171.07   -26956.427    5054.5676    4755.6626    106459.01   -26960.264 
   56500    295.60925   -132.84684    133785.25   -27112.122    5012.0097    4764.4198    106299.33   -27118.933 
   56750    299.14437   -361.44082    133409.84    -27028.37    5071.9472    4582.8513    106572.62   -27032.314 
   57000    295.60866   -209.44483    133044.41   -26987.769    5011.9997    4741.8264    106449.52   -26992.352 
   57250    298.75996   -510.84043    132651.41   -27067.854    5065.4296    4584.8183    106522.33   -27073.223 
   57500    303.85298   -197.25131    132195.34   -26993.935    5151.7809     4678.886    106506.62   -26997.603 
   57750    303.06616   -73.840654    131719.64   -27035.564    5138.4405    4752.6614    106395.06    -27038.77 
   58000    297.94822   -318.31079    131273.53   -26924.566    5051.6666    4573.8967    106684.51   -26928.507 
   58250    299.46104   -287.63357    130841.12   -27058.614    5077.3162    4632.6241    106485.32   -27063.502 
   58500    299.24533   -359.03531    130391.45   -27075.575    5073.6589    4595.5267    106505.85   -27081.038 
   58750    305.86889   -308.34265    129954.16   -27193.315    5185.9604    4628.2412    106373.09   -27196.807 
   59000    303.29073   -140.71045    129542.22   -27019.348     5142.248    4657.4908    106499.44    -27023.63 
   59250     294.6868   -387.69993     129157.6   -27144.084    4996.3697    4585.1912    106452.21   -27148.123 
   59500    293.67892   -299.61794    128790.67    -27245.92    4979.2812    4665.9934    106282.89   -27251.215 
   59750     297.5698   -332.73152    128431.62    -27144.15    5045.2506    4588.3165    106450.68   -27150.404 
   60000    300.67858   -380.32492    128084.22   -27135.802    5097.9594    4611.7052    106435.53    -27138.54 
   60250    307.02807   -403.62794    127716.16   -27128.383    5205.6141    4523.0271    106536.01   -27133.026 
   60500     307.5693   -330.12318    127331.99   -27215.836    5214.7905    4647.0495    106313.43   -27220.536 
   60750      301.558    -665.4949     126932.5   -27138.037      5112.87    4413.8459    106626.74   -27143.344 
   61000    295.46295   -297.16701    126492.97   -27233.864    5009.5293    4650.1906    106308.47   -27239.006 
   61250    296.22821   -302.40586    126082.13   -27241.731    5022.5041    4623.2764    106330.15   -27245.159 
   61500    304.71559   -197.63629    125694.97   -27255.132    5166.4064    4675.5553     106264.9   -27261.115 
   61750    294.23412    -399.9858    125304.22   -27306.736    4988.6947    4600.1076    106287.07   -27310.526 
   62000    307.46105   -293.00066    124901.61   -27180.851    5212.9552    4571.5352    106435.58   -27185.631 
   62250    301.26589   -357.48126    124540.71   -27128.758    5107.9173    4557.6102    106498.36   -27135.329 
   62500    298.04184     -274.262    124187.52   -27192.224     5053.254    4628.4653    106378.06   -27196.146 
   62750    303.55808   -77.372298    123827.74    -27356.58    5146.7809    4767.5314    106056.65   -27361.688 
   63000    299.96804   -384.91483    123483.33    -27339.32    5085.9124    4627.5928    106223.07   -27343.668 
   63250    305.98424   -313.40707    123139.21    -27230.01    5187.9162    4610.1536    106349.64   -27236.805 
   63500    300.52471   -382.65343    122783.69   -27199.354    5095.3506    4555.2083    106437.47   -27202.482 
   63750    304.99913   -305.52459    122444.29   -27230.563    5171.2138    4608.4704    106348.17   -27235.466 
   64000    308.45588    -314.1947    122081.85   -27102.381    5229.8224    4537.3133    106547.28   -27108.337 
   64250    296.87253   -344.02091    121705.84   -27264.357    5033.4285    4580.9293       106352   -27270.317 
   64500    303.39515   -309.84618     121338.3   -27280.458    5144.0184    4636.2563     106284.7   -27284.799 
   64750    302.30027   -297.69879    120977.15   -27083.154     5125.455    4538.4364    106566.58   -27089.397 
   65000    299.51447   -412.41817    120605.46   -27337.001    5078.2222    4592.4302    106257.76   -27341.889 
   65250    299.50766    -65.39106     120253.4   -27209.659    5078.1067    4727.1378     106254.8    -27215.77 
   65500    299.97469   -211.76643    119933.64   -27215.849    5086.0251    4679.9415    106306.26   -27224.604 
   65750    296.78609   -383.93734    119622.02   -27270.141    5031.9629    4604.1929    106310.69   -27278.481 
   66000    304.61669    -269.6565    119312.86    -27178.38    5164.7295    4640.3155    106375.14   -27183.941 
   66250    297.06484   -109.90908    118974.12   -27286.659     5036.689    4772.9842    106129.86   -27294.086 
   66500     298.9969   -335.42137    118603.97   -27212.343    5069.4469    4595.5361     106386.4   -27218.065 
   66750    303.25781   -231.84425    118224.01   -27214.605    5141.6899    4641.7407    106329.92    -27221.23 
   67000    292.58257   -153.03103    117846.95   -27340.408    4960.6929    4706.1991    106148.34    -27347.04 
   67250    299.50082   -17.667905    117490.95   -27261.476    5077.9908    4738.9365    106191.79   -27268.897 
   67500    297.37189   -245.31906    117155.02   -27278.329    5041.8951    4645.5313     106271.1   -27288.022 
   67750    300.30908   -63.408628    116840.73   -27266.771    5091.6947    4727.6113    106196.79   -27273.249 
   68000    305.08953   -325.04458    116551.91   -27264.465    5172.7464     4590.774    106337.66   -27273.201 
   68250    305.41432   -208.43635    116280.16   -27327.134    5178.2533    4685.1312    106184.77   -27332.622 
   68500     302.1147   -204.18931    115992.02   -27303.751    5122.3088    4723.3323    106160.74   -27311.018 
   68750    299.68147   -340.25988    115670.51   -27374.278    5081.0537     4619.669    106196.73   -27380.319 
   69000    301.45144   -293.81003    115343.61   -27384.988    5111.0633    4599.9019    106213.24   -27391.961 
   69250     297.9255    85.639912    115033.19   -27430.788    5051.2815    4852.2521    105915.11   -27437.597 
   69500    298.88423   -148.61782    114766.06   -27362.224    5067.5366    4677.5586    106151.76   -27369.068 
   69750    298.80786   -464.74814     114530.2   -27546.422    5066.2418    4631.9765    106007.45   -27558.503 
   70000    293.00782   -379.64352    114276.34   -27391.387     4967.903    4627.9788    106177.35   -27400.123 
   70250    299.36473   -269.82376    113991.43   -27387.356    5075.6833    4694.9579     106102.2   -27397.541 
   70500    305.15415   -297.78554     113687.2   -27376.899    5173.8422    4628.3152    106181.88   -27386.908 
   70750    296.14333   -223.47504    113384.17   -27368.737    5021.0649    4656.7612    106171.72   -27377.373 
   71000    298.69184   -170.85033     113091.6   -27353.477    5064.2745     4729.653    106110.28   -27361.457 
   71250    297.14931   -353.01612    112789.27   -27419.518    5038.1213    4631.1793    106137.89   -27430.758 
   71500    298.72361   -385.97934    112481.09   -27491.685    5064.8132    4633.5168     106069.8   -27500.852 
   71750    297.10062    -198.7264    112181.23   -27515.441    5037.2958    4738.1242    105940.47   -27522.302 
   72000    299.32498   -176.68343    111915.26   -27453.455    5075.0095    4730.6343    106005.35   -27463.083 
   72250    297.32004   -559.69045    111654.66   -27452.498     5041.016    4609.7899    106141.22   -27461.701 
   72500    297.23194    -725.5648    111350.78   -27558.705    5039.5223    4553.2832    106084.74    -27568.14 
   72750    303.77839    -286.5112    111000.36   -27312.955    5150.5163    4640.4336    106247.13   -27320.069 
   73000    299.99818   -435.56119    110611.71   -27454.966    5086.4235    4652.6451    106089.25   -27460.762 
   73250    309.21004   -51.998555    110211.83   -27507.866    5242.6091    4802.7975    105882.09    -27514.81 
   73500    302.74382   -125.35141    109836.94    -27285.59    5132.9753    4692.4963    106221.66   -27293.983 
   73750    296.31534   -283.16229    109481.64   -27484.319    5023.9814    4692.5001    106026.59    -27493.43 
   74000    298.74514   -729.90207    109133.18   -27511.327    5065.1783    4514.5283    106171.18   -27518.334 
   74250    302.30877   -227.87951    108782.24   -27427.854    5125.5992    4768.8869    106008.21   -27435.234 
   74500    310.45068   -148.42818    108428.82   -27356.207    5263.6439    4708.7423    106133.44   -27366.393 
   74750    298.98573   -621.13484    108090.61   -27511.506    5069.2575    4551.5579    106132.86   -27519.317 
   75000    298.94229   -247.33362    107746.73   -27442.395     5068.521    4701.0451    106054.27   -27453.254 
   75250    300.58558    78.587742    107444.45   -27449.086    5096.3827     4817.351    105928.27   -27458.758 
   75500    301.73017   -96.712197    107178.86   -27377.095    5115.7891    4690.1968    106142.79   -27383.459 
   75750    302.10934   -184.14152    106908.37   -27456.612    5122.2178    4718.3472    106018.39   -27463.106 
   76000    297.90551   -503.63042    106626.55   -27492.572    5050.9425    4608.9461     106091.1   -27500.205 
   76250     304.6334     -293.578    106328.67   -27414.023    5165.0129    4674.1344    106112.32   -27424.302 
   76500    294.15324   -318.43414    106018.28   -27500.445    4987.3233    4717.5491    105982.28   -27507.203 
   76750    299.61233   -254.85514    105693.74   -27412.354    5079.8814    4703.5746    106081.29   -27422.813 
   77000     299.0229   -503.39542    105367.17   -27484.593    5069.8876    4547.7026     106165.9   -27493.769 
   77250     296.2199   -218.33887    105054.56   -27454.971    5022.3632    4717.3317    106033.49   -27463.082 
   77500    306.78283   -73.008727    104764.57   -27397.722    5201.4562    4702.4394    106102.52   -27407.329 
   77750    299.94911   -377.62643     104482.9   -27398.488    5085.5914    4572.4293    106221.78   -27407.267 
   78000       297.43    -283.3696    104193.04   -27550.976    5042.8803    4672.1016    105982.26    -27558.18 
   78250    302.14951    90.412987    103920.21   -27559.927    5122.8989    4819.2176       105812   -27569.858 
   78500     301.3505   -77.511846    103698.92   -27553.366    5109.3518    4732.0448    105911.35   -27562.212 
   78750    293.71935   -46.974567    103514.81   -27504.046    4979.9668    4727.6171    105958.77   -27512.274 
   79000    303.66141   -484.79731    103327.87   -27595.267    5148.5329    4576.8603    106031.06   -27603.779 
   79250    298.96636   -306.80296    103121.66   -27708.738     5068.929    4703.4756    105779.58    -27717.12 
   79500    293.34234   -380.11354    102916.19   -27442.174    4973.5747     4601.228    106136.91   -27454.976 
   79750    301.00179   -196.77787    102690.46   -27454.791    5103.4394    4673.6277    106066.77   -27464.839 
   80000    302.17757   -351.15578    102426.72   -27444.168    5123.3747    4650.0841    106105.95   -27455.178 
   80250    301.85308   -820.63562    102125.71   -27497.229    5117.8729    4466.1658    106239.23    -27511.59 
   80500    300.75116   -359.62145    101792.25   -27546.891    5099.1901    4670.4772    105986.75   -27554.704 
   80750    295.38058   -432.56665     101468.2   -27378.499    5008.1327     4595.099    106223.32    -27386.86 
   81000    296.34178   -396.60359    101147.56   -27582.251    5024.4298    4656.1161    105959.22   -27590.351 
   81250    297.84636   -286.52451    100814.17   -27552.884    5049.9397    4662.2357    105980.28   -27563.053 
   81500    296.55673    -585.3273    100507.46   -27664.578    5028.0741    4592.9634    105948.29   -27673.264 
   81750    303.17703   -324.15495    100211.85   -27615.606    5140.3203     4685.901    105895.44   -27625.336 
   82000    303.45101   -368.29211    99918.629   -27589.053    5144.9656    4632.7492     105979.6    -27595.02 
   82250    304.06705   -460.80575    99642.529   -27610.165    5155.4105    4597.1991    106000.68   -27617.491 
   82500    297.76914   -631.50321    99362.702    -27543.89    5048.6304    4494.2631    106164.53   -27551.392 
   82750    295.31155   -582.65319     99068.35    -27668.01    5006.9623    4594.9072    105954.14   -27676.234 
   83000    296.18068   -409.60294    98754.685     -27529.8    5021.6983    4634.6258    106039.17   -27539.037 
   83250     303.0574   -484.84147     98448.94   -27703.921     5138.292    4628.8474    105871.53   -27712.228 
   83500    297.88653   -615.20772    98142.656    -27358.13    5050.6207    4463.6219    106383.68   -27364.586 
   83750    301.74803   -660.15911    97825.143   -27578.767    5116.0919    4564.6161    106063.37   -27586.331 
   84000    299.48988   -474.83636     97502.97   -27559.507    5077.8053    4624.5289    106022.79   -27567.401 
   84250    304.86789   -737.80102    97192.725   -27459.295    5168.9887    4454.2917    106292.79   -27466.129 
   84500    295.97461   -530.82029    96877.355   -27525.834    5018.2044     4590.721    106095.02   -27531.938 
   84750    299.51179   -198.13237    96564.307   -27543.764    5078.1767     4744.073    105927.37   -27548.537 
   85000    299.93903    -516.3106    96279.412   -27597.659    5085.4205     4637.545     105975.4   -27606.438 
   85250    296.76304   -244.09633    96004.103   -27488.424    5031.5722    4686.4459    106040.51   -27492.712 
   85500    304.10311   -679.73091    95722.972   -27574.009    5156.0218    4567.4975    106064.04   -27581.848 
   85750    303.59027   -5.0813737    95408.065   -27651.407    5147.3267    4861.1583    105691.12   -27660.863 
   86000    299.17841   -181.51622    95124.016   -27547.438    5072.5244    4717.9869    105935.45   -27556.586 
   86250    301.24029   -653.64746    94852.433   -27826.657    5107.4833     4643.622    105745.85   -27834.434 
   86500    300.23254   -261.91634    94574.344   -27659.977    5090.3969    4687.2256    105869.31   -27667.332 
   86750    300.28184    80.210181    94298.816   -27578.835    5091.2328    4799.8802    105822.14   -27589.315 
   87000    296.22098   -343.63094    94039.625   -27713.872    5022.3815    4708.5078    105788.34   -27722.269 
   87250    296.89173   -519.68244    93787.637   -27629.527     5033.754    4622.5634    105962.56   -27635.711 
   87500    304.66113   -561.85352    93520.155   -27803.285     5165.483    4633.6779    105780.17   -27811.427 
   87750     300.6509   -304.29289    93244.379   -27622.912    5097.4903    4667.0417    105919.33   -27632.412 
   88000    302.26952   -33.828125    92958.512    -27663.02    5124.9336    4797.3525    105751.52   -27671.646 
   88250    301.36214   -495.39074    92685.512   -27630.072    5109.5491    4625.0277    105965.28   -27637.029 
   88500    298.49721   -475.88645    92407.557   -27656.298    5060.9747    4605.2747    105948.21   -27662.985 
   88750    298.24275    -61.33659    92131.482    -27757.65    5056.6603    4825.3705    105623.09    -27763.21 
   89000    296.41544   -476.84968    91886.419   -27657.246    5025.6786    4605.4136    105955.73    -27664.77 
   89250    298.77288   -357.53028    91632.673    -27747.87    5065.6486    4695.2954    105775.23   -27752.976 
   89500    300.88444   -157.13576    91360.959   -27810.005    5101.4498    4764.0603    105653.98   -27813.844 
   89750    300.24878   -390.10373    91101.599   -27728.446    5090.6724    4637.7414    105848.13   -27732.537 
   90000    303.83571    -559.0885    90842.413   -27703.725    5151.4881    4536.2023    105978.19   -27710.075 
   90250    296.55032   -226.47031    90595.756   -27892.621    5027.9655     4733.863    105594.91   -27898.175 
   90500    299.23558    30.001953    90367.998   -27871.298    5073.4937    4814.4073    105534.78    -27878.05 
   90750     297.3867   -35.553961    90168.711   -27781.068    5042.1462    4747.2039    105676.05   -27791.479 
   91000    302.46449    -300.4613    89977.725   -27667.802    5128.2393    4619.5364    105922.43   -27675.791 
   91250    303.12139   -103.02786    89791.704   -27850.564     5139.377    4711.9658    105653.99   -27859.404 
   91500    302.87285   -84.736633    89629.038   -27978.431     5135.163    4777.0282    105458.61    -27984.42 
   91750    297.74149   -216.78629    89495.051   -27958.353    5048.1616    4731.7635    105524.03   -27968.855 
   92000     305.6827   -430.16024    89385.789   -27944.459    5182.8036    4603.6727    105675.25   -27950.668 
   92250    300.37395   -272.10458    89287.163    -27910.02    5092.7946    4634.3105    105675.97   -27915.881 
   92500    302.36048   -205.19571    89203.354   -27902.661    5126.4758    4686.5177    105630.31    -27911.16 
   92750    305.93808    163.75214    89140.078   -27831.393    5187.1336    4797.1565    105587.83   -27838.001 
   93000    295.21314    199.06114    89089.118   -27955.762    5005.2939    4849.4267    105409.92   -27964.041 
   93250    302.92422  -0.21842688    89038.833   -28001.316    5136.0339    4793.7025    105425.86   -28005.987 
   93500    301.69298   -82.379193    88975.292   -27885.525    5115.1584    4695.5189    105634.04   -27893.119 
   93750    305.48171    162.04126    88899.751   -27892.354    5179.3959    4802.9584    105517.09   -27901.603 
   94000    297.90059   -41.613959    88841.774    -27985.14     5050.859    4732.4312    105497.98    -27993.44 
   94250    303.10445   -135.14597     88796.87   -28034.531    5139.0898    4735.1458    105446.11   -28042.044 
   94500     300.2734    40.136373    88765.559   -28005.241    5091.0897    4779.9032    105434.12    -28011.18 
   94750    303.18379    195.61787    88748.458    -27866.55     5140.435    4794.7314    105557.77   -27872.232 
   95000     300.6858    75.472737    88719.201   -27954.939    5098.0819    4819.0701    105440.15   -27966.393 
   95250    297.81951    245.44298     88689.62   -28035.449    5049.4844    4890.9353    105290.06   -28045.075 
   95500    306.12673   -121.88366    88686.491   -27981.288     5190.332    4690.2496    105543.92   -27992.768 
   95750    291.95099   -339.36727    88691.332   -27959.012    4949.9846    4645.1474    105615.43   -27968.156 
   96000    298.84844   -67.919408     88684.74   -28002.028    5066.9298    4712.8163    105507.58   -28010.225 
   96250    299.67578   -137.51477    88675.677   -28107.098    5080.9572    4765.4594    105343.15    -28117.22 
   96500    302.29566   -42.259327    88688.272   -27910.259    5125.3769    4702.3778    105605.72    -27921.15 
   96750    299.15525    185.10458     88716.94   -28000.472    5072.1317    4813.3063    105400.17   -28012.234 
   97000    297.20823   -355.98509    88752.249       -27875    5039.1202    4582.3246     105751.7   -27886.709 
   97250    297.02922  -0.34030765    88790.832   -27950.222    5036.0852    4781.2269     105483.1   -27957.068 
   97500    300.60013   -178.32774     88830.85   -27928.658    5096.6294    4653.5077    105637.04   -27936.893 
   97750    299.93811   -222.30866    88851.009   -27744.108     5085.405    4578.5945    105897.27    -27751.75 
   98000    302.61783   -11.243083      88824.3   -27860.702    5130.8392    4734.9943     105627.9   -27867.762 
   98250    297.95209   -194.61454    88777.263   -27895.308    5051.7323    4658.3099    105660.57   -27905.588 
   98500     295.0449    98.306903    88719.981   -27915.343    5002.4413    4818.2475     105485.7   -27926.954 
   98750    297.43354    30.196293    88674.146   -27897.003    5042.9403    4727.2582    105596.62   -27907.799 
   99000    302.07855    163.64151    88643.081   -27829.507    5121.6958    4724.6654    105656.95    -27839.58 
   99250    300.13185   -262.70947     88612.14   -28009.746    5088.6898    4631.4776    105587.75   -28017.067 
   99500    303.23944    166.38407    88580.297   -27894.367    5141.3786    4765.7341    105550.95   -27905.475 
   99750    298.35901    34.238045    88565.594   -27942.135    5058.6315    4745.5925    105524.75   -27952.358 
  100000    303.48551   -131.91478    88559.256   -28098.331    5145.5505     4702.981    105416.65   -28107.396 
  100250    301.50009   -167.46355    88539.676   -27901.023    5111.8881    4660.7587    105658.52   -27909.549 
  100500    304.10373    -54.93076    88504.265   -28090.215    5156.0324    4759.0534    105372.94   -28098.781 
  100750     296.8673    53.275989    88470.955   -27924.235    5033.3398    4749.9241    105542.74   -27933.539 
  101000    303.59985   -113.64896    88451.807   -27898.501    5147.4892     4632.864    105687.07   -27904.662 
  101250     301.5924    49.815688    88445.022   -27905.278    5113.4531     4712.919     105610.4    -27910.97 
  101500    303.42429    322.82433    88454.391   -27899.889    5144.5126    4836.9995    105480.23   -27907.991 
  101750    299.09273    234.16686    88478.112   -27925.229    5071.0717    4798.9445    105497.94   -27931.645 
  102000    303.92482    352.87749     88539.57   -28078.404    5152.9989    4915.5404    105233.99   -28085.723 
  102250    303.21313    175.65056    88630.829   -28007.507    5140.9324    4803.9072    105404.17   -28015.125 
  102500    302.78567    285.96454    88732.046   -28028.605    5133.6849    4912.6485     105276.2   -28035.653 
  102750    302.96409    195.78245    88842.631   -27983.566      5136.71    4834.7877    105403.42   -27989.686 
  103000    303.81507   -154.59989    88951.806    -27962.29    5151.1383    4699.7651    105558.42   -27967.326 
  103250    295.32483   -18.510294    89039.513    -28088.57    5007.1874    4857.4087    105280.59    -28095.18 
  103500    305.85759    179.92343    89110.435   -27870.148    5185.7688    4808.2739    105542.59   -27877.033 
  103750    301.11983    32.047871    89170.651   -27866.107    5105.4408    4738.4394    105606.83   -27874.689 
  104000    303.32576    162.73063    89231.285   -27964.775    5142.8421    4807.8165    105455.84   -27969.578 
  104250    301.87731    153.97141    89308.079   -27906.425    5118.2837    4828.0169    105484.81   -27910.123 
  104500    298.90732   -131.47208    89377.361   -28057.792     5067.928    4768.4127    105398.05   -28064.678 
  104750     296.8153    224.69768    89445.693       -27937    5032.4581    4897.2633    105386.28   -27942.502 
  105000    300.31937     22.46003    89506.102   -27775.197    5091.8691    4732.9397    105706.65    -27779.94 
  105250    303.99383     162.7375    89529.454   -27894.901    5154.1691    4836.9602    105487.41    -27903.13 
  105500    306.69627   -72.292663     89535.98   -27929.857    5199.9885    4722.4542     105564.3   -27939.662 
  105750    295.28607   -373.59073    89532.962   -27912.858    5006.5303    4625.9271    105677.95   -27918.321 
  106000      291.902   -189.52545    89502.984    -27822.27    4949.1538    4718.7712    105682.47   -27827.556 
  106250    299.91613    235.60349    89445.588     -27943.4    5085.0323    4861.0365     105417.3   -27952.574 
  106500    296.95748   -514.25568    89380.726   -27923.758    5034.8688     4608.437    105690.87   -27930.758 
  106750    295.69561    36.890791    89292.803   -27947.131     5013.474    4845.4556    105431.21   -27955.759 
  107000    299.58432    18.096327    89195.263   -28061.853    5079.4065    4817.7853    105339.62   -28069.507 
  107250     298.7856   -138.73931    89118.573   -28012.295    5065.8644    4769.7393    105441.11   -28020.073 
  107500    298.57296    52.322557    89058.494    -27913.11     5062.259    4799.2538    105505.21   -27918.541 
  107750    302.67512    33.586387    88980.027   -27958.415    5131.8106    4766.9635    105495.18   -27962.227 
  108000    304.36911    151.92539    88910.025   -27892.222    5160.5319    4797.8989    105532.65   -27897.145 
  108250    301.71904     103.9283    88857.884   -27984.204    5115.6004    4817.9675    105414.38   -27988.702 
  108500    299.38356    626.76444    88811.764   -27971.691    5076.0026    4982.4483    105264.67   -27978.586 
  108750    300.66369   -238.10717    88795.024   -27988.201     5097.707    4663.1245    105570.78    -27992.71 
  109000    308.11129   -366.27219    88763.943   -27786.214      5223.98    4536.5337    105897.63   -27791.857 
  109250    300.11627    332.66033    88718.581   -28029.683    5088.4256    4914.2376     105278.6   -28034.582 
  109500    298.60358   -51.584784    88697.939   -28037.628    5062.7782    4781.2226    105399.63   -28046.225 
  109750    306.01814    212.45828    88689.823   -27875.783     5188.491    4795.6701    105548.28   -27884.934 
  110000    301.93029    36.251088    88690.274    -27947.63     5119.182     4730.216    105549.76   -27952.968 
  110250    302.68883    431.54624    88702.709    -28078.82    5132.0429    4961.0042    105179.66   -28085.863 
  110500    300.22689    207.13679    88760.335   -27990.932    5090.3011    4834.5406       105394   -27997.114 
  110750    299.63157    53.651412     88839.67   -27908.537    5080.2076    4755.2329    105554.15   -27915.291 
  111000    299.32332    360.62466    88926.689   -28010.038    5074.9812    4924.1486    105281.31   -28019.114 
  111250    294.86134   -235.23821     89039.64   -27971.374     4999.329    4670.6251    105566.68   -27977.444 
  111500    295.80055   -98.319614    89133.307   -27969.576    5015.2532    4741.3071    105509.76   -27974.719 
  111750    301.94502   -38.119543    89207.248   -27821.452    5119.4317    4723.1727    105669.18   -27828.763 
  112000    299.17384    201.18362    89278.899   -27799.791    5072.4469    4770.5171    105653.25   -27804.265 
  112250    297.74027   -132.41067    89343.931   -27917.384    5048.1409    4722.4395    105581.77   -27922.274 
  112500    299.97622   -363.45806    89375.044   -27826.543     5086.051     4609.524    105786.46   -27830.965 
  112750    302.11702   -147.55093    89371.508    -27730.86    5122.3481    4625.7653    105852.93   -27736.885 
  113000    296.85317   -327.95274    89368.475   -27741.016    5033.1002    4587.2549    105888.68   -27746.335 
  113250     300.2555   -456.91155    89351.424   -27922.111    5090.7863    4574.1617    105718.47   -27927.037 
  113500    303.00332   -56.942365    89319.026   -27897.451    5137.3751     4720.551    105609.68   -27902.761 
  113750    300.88729   -206.62796    89282.754   -27805.187    5101.4982    4637.3758    105773.72   -27812.186 
  114000    299.93567   -169.59079     89243.93   -27914.147    5085.3636    4672.2951    105630.51   -27923.827 
  114250    298.09226    35.235638    89205.499   -27849.059    5054.1089    4766.1396     105606.4   -27857.947 
  114500    301.76441   -121.96543    89162.052   -27939.651    5116.3696    4705.5253    105578.17   -27947.795 
  114750    297.02365   -192.47236    89131.592     -27965.5    5035.9907     4713.429    105542.34   -27971.915 
  115000    296.12306   -193.12101    89095.055    -27992.21    5020.7214     4707.426    105512.62   -27999.221 
  115250    297.82367   -19.202243    89048.813    -27784.55    5049.5549    4663.7384    105767.97   -27791.071 
  115500    302.17272   -340.27148    89015.305   -27964.106    5123.2924    4604.2345    105642.56   -27972.808 
  115750    299.62255     73.77995    88995.797   -27898.875    5080.0546    4761.7028    105561.71   -27904.377 
  116000      298.524    124.97842    89003.229   -27846.868    5061.4289    4782.2073     105586.9   -27852.625 
  116250    301.26847   -85.741546    89024.619   -27818.141    5107.9611    4651.4091    105754.39   -27826.255 
  116500    300.49286   -661.48986    89037.473   -27905.932    5094.8106    4478.4405    105840.85   -27911.804 
  116750    303.82856   -121.28176    89030.527   -28063.411    5151.3669    4735.0182    105426.31   -28068.337 
  117000    298.16303    50.074151    89031.575   -27895.957    5055.3087    4756.1812    105567.54   -27901.871 
  117250    294.27494    280.38645    89026.544   -27752.015    4989.3868    4790.2214    105679.11   -27758.687 
  117500    301.74626    254.51609    89036.169    -27945.52    5116.0619    4847.7519    105429.69   -27951.555 
  117750    302.11654    91.129563    89059.761   -27784.221      5122.34    4702.6244    105730.63   -27790.076 
  118000    300.83089   -62.141446    89085.435   -27732.681    5100.5419    4618.3081    105872.72   -27737.615 
  118250     299.0647   -161.96975     89113.54   -27944.364    5070.5963    4700.0343       105574   -27951.295 
  118500    302.63076    43.471328    89133.283   -27985.743    5131.0584    4794.8678    105446.65   -27993.805 
  118750    296.41732    263.02914    89143.886   -27743.523    5025.7105    4796.0066    105677.32   -27749.885 
  119000    300.33967    47.933044     89150.34   -27838.207    5092.2134    4754.2202    105614.49    -27846.26 
  119250    309.46316    252.71966     89157.77   -27832.593    5246.9007      4776.46    105599.99   -27842.807 
  119500    302.71492   -111.54179    89156.642   -27784.886    5132.4854    4657.2526     105768.1   -27795.816 
  119750     300.3709   -95.779906    89125.249   -27857.384    5092.7428     4711.949    105649.86   -27864.107 
  120000    295.18633    191.65299    89059.006   -27795.651    5004.8393    4810.2309    105607.08   -27805.742 
  120250    300.42987   -110.08527     88965.43   -27811.562    5093.7427    4656.1508    105741.38   -27825.867 
  120500    303.69624   -56.575373    88847.066   -27914.554    5149.1234     4707.728    105585.14   -27923.143 
  120750    298.98061   -346.23713    88706.513   -27974.106    5069.1707     4644.767    105598.76   -27982.759 
  121000    301.34761    379.62417     88555.97   -28015.951    5109.3027    4959.2519    105244.88   -28025.075 
  121250    301.77323    128.15014    88429.244   -27954.354    5116.5192    4792.8647    105464.58   -27964.339 
  121500    306.61309   -44.642767    88304.121   -27900.479    5198.5782    4634.2287    105683.51   -27910.495 
  121750    302.62757    247.04604    88190.926   -27934.631    5131.0044    4792.0378    105490.67   -27944.305 
  122000     295.4804    16.253237    88083.276    -27970.28    5009.8252    4745.4147    105494.65   -27981.233 
  122250    300.60612    348.87201    87997.527     -28074.4     5096.731    4883.4704    105264.64   -28081.108 
  122500    297.14844    553.26469    87949.719   -27994.391    5038.1065    4932.8258    105294.57   -27998.152 
  122750    299.27835   -50.798641    87945.974     -27932.4    5074.2188    4680.7565    105602.94   -27939.679 
  123000    298.89784    41.072575    87953.157   -28014.522    5067.7673     4733.704    105473.04   -28021.237 
  123250    301.48746    105.87751    87970.464    -27846.45    5111.6739    4683.1301    105689.44   -27855.076 
  123500    304.94732   -141.64548    88009.733   -28022.809    5170.3353    4655.4009    105542.13   -28029.256 
  123750    300.90369    128.15396    88044.427   -27988.187    5101.7762    4715.3079    105523.27   -27995.025 
  124000    298.95617    275.51716    88125.787   -27981.274    5068.7562    4863.1906    105363.42   -27992.826 
  124250    299.42427    208.06287    88274.219   -27864.396    5076.6928     4751.295    105600.03   -27871.598 
  124500    298.79568    381.11494    88458.354   -27871.292    5066.0352    4811.3765    105543.68   -27876.434 
  124750    303.57528   -132.43529    88661.129   -27797.835    5147.0725    4596.3641    105826.03   -27803.835 
  125000    297.70708   -272.99462    88839.623   -27860.123    5047.5782    4602.6722     105750.2   -27865.635 
  125250    301.19264   -24.180617    88989.898   -28020.184    5106.6753    4776.2176    105422.14   -28025.329 
  125500    301.79447    151.66379    89148.774    -27871.67    5116.8793     4784.904    105568.22   -27876.559 
  125750    299.95154   -205.57465    89311.898   -27811.219    5085.6326    4622.4613    105786.06   -27815.522 
  126000    298.77557    -451.3745    89450.719   -27786.428    5065.6942    4564.5189    105868.31   -27792.137 
  126250    304.84154   -3.5529616    89537.091   -27801.707    5168.5419    4736.4515     105685.8   -27805.899 
  126500    307.05732   -41.136994    89610.628   -27935.197    5206.1101    4751.2233     105539.3   -27939.709 
  126750     295.4654   -170.10715    89658.605   -27842.088    5009.5708    4711.1032    105658.88   -27850.534 
  127000    298.24457    173.03315    89671.439   -27966.459    5056.6912    4881.2948    105368.55   -27970.882 
  127250    303.25336    129.26512    89681.265   -27697.888    5141.6145     4722.761    105804.54   -27701.595 
  127500    296.02397    111.47538    89670.115    -27890.88    5019.0412    4859.1755    105476.77   -27893.725 
  127750    302.03092     4.224024    89645.084   -27754.174    5120.8883    4710.9207    105760.13   -27757.618 
  128000    298.04467    -272.5206    89578.664   -27879.594     5053.302    4659.5381    105678.97   -27884.712 
  128250    301.88516     279.6612    89480.834   -27881.672    5118.4169    4867.3788    105468.45   -27885.856 
  128500     300.1755    66.129758    89391.142   -28019.592    5089.4299    4825.7909    105379.85   -28025.036 
  128750    295.77721    157.20648     89309.61   -27781.405    5014.8576    4783.8937    105649.93   -27784.711 
  129000    293.09786   -17.402163    89244.542   -27910.644    4969.4295     4751.215    105556.52   -27915.731 
  129250    302.10523    453.80567    89188.676   -27979.364    5122.1481    4947.6851     105293.4   -27984.736 
  129500    300.01577   -266.64347    89147.599    -27989.79    5086.7217    4686.8757       105542   -27993.638 
  129750    301.18252   -380.05621    89080.776   -27774.253    5106.5038    4548.2967    105894.95   -27782.597 
  130000    298.25207   -4.4383158    88961.155    -27915.11    5056.8185    4738.3996    105558.36   -27919.451 
  130250    301.21716   -104.55709    88829.744   -27975.854     5107.091    4713.9425    105534.04   -27984.239 
  130500    297.77236    195.78622    88702.408   -27876.318     5048.685    4765.6522    105576.33   -27882.784 
  130750    297.82512   -42.475897    88602.552   -27862.753    5049.5796    4677.0284    105692.03   -27866.727 
  131000    303.31344   -77.391484    88507.396   -27955.765    5142.6332    4676.8089    105583.79   -27962.209 
  131250     299.2871   -91.636757    88418.397   -27787.548    5074.3671    4608.9618    105822.93    -27796.22 
  131500    302.87499     172.4564    88348.228   -27893.438    5135.1992    4750.1401     105579.2   -27899.492 
  131750    300.06394   -100.31984    88308.392   -28010.876    5087.5383    4715.4172    105491.76   -28017.883 
  132000    300.76609   -209.37882    88298.921   -28041.056    5099.4432    4653.8853    105526.35   -28045.584 
  132250    298.23977    105.61859    88307.381   -27806.025    5056.6098    4684.5643    105734.01   -27811.483 
  132500    300.58287   -70.223799    88343.362   -27794.356    5096.3367    4609.2585    105804.17   -27802.502 
  132750    296.55384   -203.18058    88399.118   -27976.055    5028.0252    4676.3349    105568.19   -27984.439 
  133000    301.39843   -24.744875    88466.128   -27930.729    5110.1645    4702.7391    105584.13   -27937.453 
  133250     299.4947     253.3624    88554.415   -28069.345     5077.887    4881.4956    105265.45   -28075.365 
  133500    298.91619    366.69921    88659.307   -27894.435    5068.0784    4865.6035    105459.29   -27900.296 
  133750    300.49831   -304.66761    88781.925    -27886.47     5094.903    4571.1631    105752.29   -27897.321 
  134000    297.08913   -597.17714    88888.247   -27843.291    5037.1009     4515.193    105863.53   -27849.478 
  134250     294.8469    -172.2642    88961.611   -27998.931    4999.0843    4732.0049    105489.32     -28006.3 
  134500    301.98542   -45.656391    89026.132   -27936.197    5120.1168    4750.6874    105532.82   -27944.969 
  134750    303.71921    195.84267    89083.079   -27854.135    5149.5128    4822.7762    105539.23   -27859.719 
  135000    299.29103   -5.4876078    89136.851   -27853.686    5074.4338    4714.0284    105657.52   -27857.437 
  135250     297.7119   -567.55733    89192.907   -27978.726    5047.6599    4559.4631    105677.79    -27982.91 
  135500    298.80352   -357.82384    89233.929    -27786.38    5066.1682    4576.7179    105853.09   -27793.477 
  135750    298.19803    125.35028     89255.46   -27925.516    5055.9021    4813.0351    105483.27   -27929.982 
  136000    302.67944   -59.024607    89280.513   -27941.383    5131.8838    4765.8228     105516.3   -27947.668 
  136250    301.31386   -499.75331    89305.599   -27931.115    5108.7305    4565.6043    105723.27   -27935.631 
  136500    293.80295   -154.25345    89322.597    -27970.28    4981.3843     4760.945    105492.84   -27974.728 
  136750    297.78065   -396.26187     89328.86   -28102.283    5048.8256    4681.1686    105439.44   -28108.623 
  137000    300.17879   -324.08091    89325.648   -27935.707    5089.4856    4657.4835    105631.64   -27941.056 
  137250    305.25306     22.88096    89319.021   -27863.626    5175.5192    4783.2544    105570.67   -27869.298 
  137500    295.74795    83.381215    89288.185   -27952.984    5014.3615    4849.5427     105418.9   -27958.207 
  137750    301.38443   0.75535416    89222.548   -27851.885     5109.927     4737.325    105631.26   -27857.882 
  138000    294.54639    100.98448    89135.152   -27941.846    4993.9891    4833.6672    105445.82   -27948.148 
  138250    300.77221    -288.8075    89036.276    -27872.64    5099.5469    4628.1139    105724.28   -27877.177 
  138500    304.37646    82.801516    88927.596   -28070.299    5160.6564     4838.177    105316.97   -28074.371 
  138750    299.05084    388.23679    88832.667   -27948.004    5070.3614    4896.3587    105377.07   -27953.346 
  139000    298.48137   -95.295613    88750.639   -27797.356    5060.7061    4698.1497    105718.01   -27804.539 
  139250    304.62703     270.5403    88661.514   -27902.215    5164.9048    4816.8822    105501.98   -27908.557 
